Ti27 Pb27 O81                       
   1.00000000000000     
    11.8378881194251235    0.0000000000000000    0.0000000000000000
     0.0000000000000000   11.8378881194251235    0.0000000000000000
     0.0000000000000000    0.0000000000000000   11.8830659889828141
   Pb   Ti   O    Ti
    27    26    81     1
Direct
  0.0002891594092300  0.0001307913094295  0.0065459741439451
 -0.0000053224985598  0.9999810775466685  0.3379688304130469
  0.9999386205438726  0.9997585686880650  0.6727319982495104
  0.0004367140695316  0.3328088391505148  0.0065592787818303
 -0.0000106504796262  0.3333497463001630  0.3379420291969406
  0.9999011171850901  0.3334012212604028  0.6727491590055186
  0.0001687423805120  0.6665817824408824  0.0066018439182536
  0.0000658918263463  0.6666564586559517  0.3378486936813878
  0.9996059837870841  0.6666000478910773  0.6731702120771361
  0.3328490564204956  0.0003258648985563  0.0065950425935571
  0.3333702438662379  0.9999774593016638  0.3379503641835510
  0.3333565753872388  0.9999270504402228  0.6727193917009733
  0.3328093141885600  0.3326952660460392  0.0065734245830940
  0.3333595771002941  0.3333476557075506  0.3379651438131141
  0.3334848013965803  0.3333807902002354  0.6727665308636059
  0.3331754320176802  0.6665266452652239  0.0066266535193968
  0.3332598069756432  0.6666538934035189  0.3378279652788534
  0.3338009070460102  0.6665997984938900  0.6732163024998331
  0.6665740033358311  0.0000924494960691  0.0066270394644009
  0.6666810069414809  0.0000493249614335  0.3378448160501996
  0.6666960477304095  0.9995145750354590  0.6731836194640868
  0.6667302685409777  0.3329660389731920  0.0065662785798231
  0.6666508783688080  0.3332023223617774  0.3378951596649251
  0.6666748071514166  0.3336596457080438  0.6731347151508617
  0.6666172352506218  0.6664899824243256  0.0067554249383311
  0.6666602449658530  0.6666774955291521  0.3377846905194751
  0.6665939642488773  0.6666414155356927  0.6734859815153312
  0.1667219710229197  0.1666019055447707  0.5206637471453548
  0.1666697334836685  0.1665772854872471  0.8540469519344798
  0.1667162652898034  0.4999859025133045  0.1875453760252317
  0.1667104238018639  0.5000388753432206  0.5209833449049970
  0.1667215578830746  0.4998762142633454  0.8544026607427591
  0.1667178498699776  0.8332586384632725  0.1875395021756220
  0.1667233479690250  0.8331271601789912  0.5209785411677504
  0.1667210249228973  0.8333217159930272  0.8543998443887039
  0.5000676816117874  0.1666124211158554  0.1875391009167467
  0.5001690160360415  0.1666105043652125  0.5209887092621009
  0.4999693198226588  0.1666128851947353  0.8543954326796479
  0.5000586707727033  0.4999204384245877  0.1876001805093939
  0.5000552909012470  0.4999797971243908  0.5210492245059869
  0.4999852861387368  0.4998118399860687  0.8547448555120871
  0.5000353545610102  0.8332774653651732  0.1876038524677737
  0.5000473987493020  0.8332845287614723  0.5210428222345396
  0.4999666830157217  0.8333488750439185  0.8547336694055259
  0.8333511164555045  0.1666044065224211  0.1875410697331143
  0.8332914294411307  0.1666101805825238  0.5209857699965358
  0.8334503191515071  0.1665962956447749  0.8544005686403429
  0.8333740575310267  0.4999314116123540  0.1876086228442435
  0.8333253868504630  0.4999848332582246  0.5210343445124067
  0.8334510613248890  0.4998603267410491  0.8547097994961108
  0.8333897922385821  0.8332794900506877  0.1876117760770024
  0.8333302429342271  0.8332424163614202  0.5210449989066120
  0.8334085291878323  0.8333197696675289  0.8547238356940262
  0.1668972326576659  0.1666550301368873  0.0293601845038981
  0.1667593507081664  0.1665830046295753  0.3636968498212245
  0.1668112455900872  0.1665559682889848  0.6964815875905472
  0.1667901482520699  0.4995681343993770  0.0292255401254291
  0.1667922175658069  0.5007858905263084  0.3639070984974286
  0.1667573689756130  0.4993184088056678  0.6969277735103896
  0.1667530362894544  0.8336197166347603  0.0292252455780171
  0.1667890363713325  0.8323244872821735  0.3638993443879960
  0.1667486286550526  0.8338491430969588  0.6969354009500117
  0.4997413007812042  0.1665706316136785  0.0292212083503922
  0.5010524166492329  0.1665586934053845  0.3639061773727002
  0.4995308512445942  0.1666008235836281  0.6969263462601772
  0.5002911527661426  0.5001538427738775  0.0293394969948739
  0.5002652636366376  0.5000565269424353  0.3640113001323378
  0.4998487850529078  0.4996658880556494  0.6971315151752018
  0.5002963451322949  0.8330949703124542  0.0293359987068099
  0.5002562295541699  0.8330901276110658  0.3640026525325222
  0.4999021412436291  0.8334594058565156  0.6971315273381323
  0.8337545047081404  0.1666214194179343  0.0292263089034244
  0.8325575333294005  0.1665620925589703  0.3639092989216032
  0.8340205613734237  0.1666055856585695  0.6969270719797807
  0.8332813967888975  0.5000886277035531  0.0293323001961632
  0.8333035300300558  0.5000550937636885  0.3640019156675138
  0.8337311065919265  0.4996517689343672  0.6971278326346754
  0.8333713329042284  0.8331397684246908  0.0293378276200843
  0.8333241360503908  0.8331098035375415  0.3640020831183715
  0.8336936577600143  0.8335090827152196  0.6971257798981912
  0.1667582806284454 -0.0001152333539192  0.2049933422020312
  0.1667586726744178  0.9998496178779139  0.5379989435187926
  0.1667642721725909  0.0000614634577713  0.8711502900635536
  0.1667516475133812  0.3333584586734260  0.2049890772803504
  0.1667573054463275  0.3333279896201130  0.5380245777186984
  0.1667643886023369  0.3331189336176844  0.8711232412645984
  0.1667394462947963  0.6666107242729501  0.2038257068044978
  0.1667519436529789  0.6665796654178846  0.5393201772896280
  0.1667443074512464  0.6666007308360480  0.8711417226754026
  0.5000787445336304 -0.0000832296253095  0.2047476976842996
  0.5001560963200886  0.9998947950808357  0.5385806811524416
  0.5000605094636694 -0.0000067980840370  0.8712861733333325
  0.5000615578294232  0.3332762764086568  0.2047618528707452
  0.5001465133840199  0.3333010781531839  0.5385705745527123
  0.5000511255850046  0.3331805225112337  0.8712921126544122
  0.5000625339693452  0.6666006221787918  0.2046331611428811
  0.5001295901665613  0.6666059718628408  0.5390790928042146
  0.5000000530425197  0.6665832959538475  0.8709943201542749
  0.8334342117497308 -0.0000699564388479  0.2047562045610110
  0.8333613714991143  0.9998928923372024  0.5385804938468994
  0.8334740921799856 -0.0000009973520732  0.8712721108940540
  0.8334206671542796  0.3332769483810167  0.2047623882157160
  0.8333632280938548  0.3332963054422599  0.5385690852602387
  0.8334663214306881  0.3331911439084875  0.8712904225999109
  0.8334564291827643  0.6666066077884375  0.2046252858940397
  0.8333904345519542  0.6666009736708902  0.5390628691584214
  0.8335575842606262  0.6665948200980376  0.8710143958814650
 -0.0000093349808285  0.1666227224297251  0.2049763404124401
  0.0000117541415059  0.1665935436049965  0.5380174906792841
  0.0002109923683075  0.1666081356092010  0.8711584693867394
  0.0000558690636693  0.4999141510449455  0.2047565454416127
  0.0000356112421687  0.4999825383589472  0.5385698496448988
  0.0001448397920487  0.4998711117054425  0.8712966922446173
  0.0000638968072766  0.8332940372366714  0.2047672912778039
  0.0000340712760149  0.8332067857525917  0.5385709441343635
  0.0001345259259355  0.8333156912330862  0.8712797820761170
  0.3334656996919425  0.1666065879788772  0.2050113041983380
  0.3334866829243247  0.1665794151471422  0.5380043780155491
  0.3332644077883288  0.1665899017789905  0.8711113183440160
  0.3334197126195660  0.4999367158271059  0.2047550131939520
  0.3334353359117390  0.4999911421033424  0.5385839001982630
  0.3333364647354086  0.4998927131838525  0.8712733154492386
  0.3334136828183650  0.8332702422450422  0.2047483113092796
  0.3334380645278238  0.8331940406845282  0.5385846683564951
  0.3333422523857946  0.8332913431768392  0.8712850299256678
  0.6667221429176532  0.1666029930426794  0.2038210395896139
  0.6667571788465629  0.1665937090951660  0.5393139735919886
  0.6667294887062447  0.1666001944855839  0.8711472887701854
  0.6667310595069186  0.4999123259515344  0.2046418825707058
  0.6667325411853946  0.4999648068889322  0.5390733718560812
  0.6667512056507002  0.4998048353433540  0.8709952484197380
  0.6667399345689625  0.8332971736214644  0.2046166409005402
  0.6667325686663995  0.8332198145957597  0.5390672427000232
  0.6667469005607582  0.8333714275060109  0.8710193672766453
  0.1666971661305287  0.1666095096681447  0.1878143146592017
 
  0.00000000E+00  0.00000000E+00  0.00000000E+00
  0.00000000E+00  0.00000000E+00  0.00000000E+00
  0.00000000E+00  0.00000000E+00  0.00000000E+00
  0.00000000E+00  0.00000000E+00  0.00000000E+00
  0.00000000E+00  0.00000000E+00  0.00000000E+00
  0.00000000E+00  0.00000000E+00  0.00000000E+00
  0.00000000E+00  0.00000000E+00  0.00000000E+00
  0.00000000E+00  0.00000000E+00  0.00000000E+00
  0.00000000E+00  0.00000000E+00  0.00000000E+00
  0.00000000E+00  0.00000000E+00  0.00000000E+00
  0.00000000E+00  0.00000000E+00  0.00000000E+00
  0.00000000E+00  0.00000000E+00  0.00000000E+00
  0.00000000E+00  0.00000000E+00  0.00000000E+00
  0.00000000E+00  0.00000000E+00  0.00000000E+00
  0.00000000E+00  0.00000000E+00  0.00000000E+00
  0.00000000E+00  0.00000000E+00  0.00000000E+00
  0.00000000E+00  0.00000000E+00  0.00000000E+00
  0.00000000E+00  0.00000000E+00  0.00000000E+00
  0.00000000E+00  0.00000000E+00  0.00000000E+00
  0.00000000E+00  0.00000000E+00  0.00000000E+00
  0.00000000E+00  0.00000000E+00  0.00000000E+00
  0.00000000E+00  0.00000000E+00  0.00000000E+00
  0.00000000E+00  0.00000000E+00  0.00000000E+00
  0.00000000E+00  0.00000000E+00  0.00000000E+00
  0.00000000E+00  0.00000000E+00  0.00000000E+00
  0.00000000E+00  0.00000000E+00  0.00000000E+00
  0.00000000E+00  0.00000000E+00  0.00000000E+00
  0.00000000E+00  0.00000000E+00  0.00000000E+00
  0.00000000E+00  0.00000000E+00  0.00000000E+00
  0.00000000E+00  0.00000000E+00  0.00000000E+00
  0.00000000E+00  0.00000000E+00  0.00000000E+00
  0.00000000E+00  0.00000000E+00  0.00000000E+00
  0.00000000E+00  0.00000000E+00  0.00000000E+00
  0.00000000E+00  0.00000000E+00  0.00000000E+00
  0.00000000E+00  0.00000000E+00  0.00000000E+00
  0.00000000E+00  0.00000000E+00  0.00000000E+00
  0.00000000E+00  0.00000000E+00  0.00000000E+00
  0.00000000E+00  0.00000000E+00  0.00000000E+00
  0.00000000E+00  0.00000000E+00  0.00000000E+00
  0.00000000E+00  0.00000000E+00  0.00000000E+00
  0.00000000E+00  0.00000000E+00  0.00000000E+00
  0.00000000E+00  0.00000000E+00  0.00000000E+00
  0.00000000E+00  0.00000000E+00  0.00000000E+00
  0.00000000E+00  0.00000000E+00  0.00000000E+00
  0.00000000E+00  0.00000000E+00  0.00000000E+00
  0.00000000E+00  0.00000000E+00  0.00000000E+00
  0.00000000E+00  0.00000000E+00  0.00000000E+00
  0.00000000E+00  0.00000000E+00  0.00000000E+00
  0.00000000E+00  0.00000000E+00  0.00000000E+00
  0.00000000E+00  0.00000000E+00  0.00000000E+00
  0.00000000E+00  0.00000000E+00  0.00000000E+00
  0.00000000E+00  0.00000000E+00  0.00000000E+00
  0.00000000E+00  0.00000000E+00  0.00000000E+00
  0.00000000E+00  0.00000000E+00  0.00000000E+00
  0.00000000E+00  0.00000000E+00  0.00000000E+00
  0.00000000E+00  0.00000000E+00  0.00000000E+00
  0.00000000E+00  0.00000000E+00  0.00000000E+00
  0.00000000E+00  0.00000000E+00  0.00000000E+00
  0.00000000E+00  0.00000000E+00  0.00000000E+00
  0.00000000E+00  0.00000000E+00  0.00000000E+00
  0.00000000E+00  0.00000000E+00  0.00000000E+00
  0.00000000E+00  0.00000000E+00  0.00000000E+00
  0.00000000E+00  0.00000000E+00  0.00000000E+00
  0.00000000E+00  0.00000000E+00  0.00000000E+00
  0.00000000E+00  0.00000000E+00  0.00000000E+00
  0.00000000E+00  0.00000000E+00  0.00000000E+00
  0.00000000E+00  0.00000000E+00  0.00000000E+00
  0.00000000E+00  0.00000000E+00  0.00000000E+00
  0.00000000E+00  0.00000000E+00  0.00000000E+00
  0.00000000E+00  0.00000000E+00  0.00000000E+00
  0.00000000E+00  0.00000000E+00  0.00000000E+00
  0.00000000E+00  0.00000000E+00  0.00000000E+00
  0.00000000E+00  0.00000000E+00  0.00000000E+00
  0.00000000E+00  0.00000000E+00  0.00000000E+00
  0.00000000E+00  0.00000000E+00  0.00000000E+00
  0.00000000E+00  0.00000000E+00  0.00000000E+00
  0.00000000E+00  0.00000000E+00  0.00000000E+00
  0.00000000E+00  0.00000000E+00  0.00000000E+00
  0.00000000E+00  0.00000000E+00  0.00000000E+00
  0.00000000E+00  0.00000000E+00  0.00000000E+00
  0.00000000E+00  0.00000000E+00  0.00000000E+00
  0.00000000E+00  0.00000000E+00  0.00000000E+00
  0.00000000E+00  0.00000000E+00  0.00000000E+00
  0.00000000E+00  0.00000000E+00  0.00000000E+00
  0.00000000E+00  0.00000000E+00  0.00000000E+00
  0.00000000E+00  0.00000000E+00  0.00000000E+00
  0.00000000E+00  0.00000000E+00  0.00000000E+00
  0.00000000E+00  0.00000000E+00  0.00000000E+00
  0.00000000E+00  0.00000000E+00  0.00000000E+00
  0.00000000E+00  0.00000000E+00  0.00000000E+00
  0.00000000E+00  0.00000000E+00  0.00000000E+00
  0.00000000E+00  0.00000000E+00  0.00000000E+00
  0.00000000E+00  0.00000000E+00  0.00000000E+00
  0.00000000E+00  0.00000000E+00  0.00000000E+00
  0.00000000E+00  0.00000000E+00  0.00000000E+00
  0.00000000E+00  0.00000000E+00  0.00000000E+00
  0.00000000E+00  0.00000000E+00  0.00000000E+00
  0.00000000E+00  0.00000000E+00  0.00000000E+00
  0.00000000E+00  0.00000000E+00  0.00000000E+00
  0.00000000E+00  0.00000000E+00  0.00000000E+00
  0.00000000E+00  0.00000000E+00  0.00000000E+00
  0.00000000E+00  0.00000000E+00  0.00000000E+00
  0.00000000E+00  0.00000000E+00  0.00000000E+00
  0.00000000E+00  0.00000000E+00  0.00000000E+00
  0.00000000E+00  0.00000000E+00  0.00000000E+00
  0.00000000E+00  0.00000000E+00  0.00000000E+00
  0.00000000E+00  0.00000000E+00  0.00000000E+00
  0.00000000E+00  0.00000000E+00  0.00000000E+00
  0.00000000E+00  0.00000000E+00  0.00000000E+00
  0.00000000E+00  0.00000000E+00  0.00000000E+00
  0.00000000E+00  0.00000000E+00  0.00000000E+00
  0.00000000E+00  0.00000000E+00  0.00000000E+00
  0.00000000E+00  0.00000000E+00  0.00000000E+00
  0.00000000E+00  0.00000000E+00  0.00000000E+00
  0.00000000E+00  0.00000000E+00  0.00000000E+00
  0.00000000E+00  0.00000000E+00  0.00000000E+00
  0.00000000E+00  0.00000000E+00  0.00000000E+00
  0.00000000E+00  0.00000000E+00  0.00000000E+00
  0.00000000E+00  0.00000000E+00  0.00000000E+00
  0.00000000E+00  0.00000000E+00  0.00000000E+00
  0.00000000E+00  0.00000000E+00  0.00000000E+00
  0.00000000E+00  0.00000000E+00  0.00000000E+00
  0.00000000E+00  0.00000000E+00  0.00000000E+00
  0.00000000E+00  0.00000000E+00  0.00000000E+00
  0.00000000E+00  0.00000000E+00  0.00000000E+00
  0.00000000E+00  0.00000000E+00  0.00000000E+00
  0.00000000E+00  0.00000000E+00  0.00000000E+00
  0.00000000E+00  0.00000000E+00  0.00000000E+00
  0.00000000E+00  0.00000000E+00  0.00000000E+00
  0.00000000E+00  0.00000000E+00  0.00000000E+00
  0.00000000E+00  0.00000000E+00  0.00000000E+00
  0.00000000E+00  0.00000000E+00  0.00000000E+00
  0.00000000E+00  0.00000000E+00  0.00000000E+00
  0.00000000E+00  0.00000000E+00  0.00000000E+00
  0.00000000E+00  0.00000000E+00  0.00000000E+00
