Ba27 Ti27 O81                       
   1.00000000000000     
    12.0245668447183647    0.0000000000000000    0.0000000000000000
     0.0000000000000000   12.0245668447183647    0.0000000000000000
     0.0000000000000000    0.0000000000000000   12.0245668447183647
   Ba   Ti   O    O 
    27    27    80     1
Direct
  0.1666220271867595  0.1701681778449793  0.1682490243801543
  0.1666231183822906  0.1671956067574084  0.5000335651269558
  0.1666206621925354  0.1701747385401223  0.8318138538514974
  0.1666237491228631  0.4999853316056591  0.1664353880514653
  0.1666207318891109  0.4999878052670809  0.5000321835719681
  0.1666244792232537  0.4999866091880092  0.8336299898458904
  0.1666217068575751  0.8298049378028515  0.1682516560300858
  0.1666237624511027  0.8327811216321933  0.5000321331459852
  0.1666216412485085  0.8298030060371153  0.8318164672102570
  0.5005785848706594  0.1683553652849929  0.1678864459241887
  0.5000557982245453  0.1667434921274888  0.5000346922052524
  0.5005822439653708  0.1683573906075922  0.8321821301540997
  0.4999682822342930  0.4999848060517615  0.1666627374993492
  0.4999743818965192  0.4999870031338877  0.5000336113242951
  0.4999679381308823  0.4999859200333176  0.8334117246783943
  0.5005785530796323  0.8316156611883299  0.1678848512230439
  0.5000553822658186  0.8332277808073212  0.5000346680758535
  0.5005820145837462  0.8316141009046391  0.8321833211434601
  0.8326623639549213  0.1683547046790494  0.1678808397011972
  0.8331865239345815  0.1667400452975122  0.5000350237366723
  0.8326620108732560  0.1683557705145712  0.8321871872999624
  0.8332789346879732  0.4999846744906263  0.1666559550130640
  0.8332712484146625  0.4999858613103080  0.5000341630181765
  0.8332767488472750  0.4999848686868192  0.8334171148612012
  0.8326634595829274  0.8316168841728822  0.1678803306651847
  0.8331878950335024  0.8332307247933225  0.5000343673544321
  0.8326613549586309  0.8316143082571849  0.8321883698322193
  0.9912791330583552  0.9999838419032110  0.0000343779524246
  0.0004983145838533  0.9999866508291146  0.3338882167222981
  0.0005012731383746  0.9999869333707661  0.6661812088871386
  0.9996064414462381  0.3333759068349069  0.0000365217956642
  0.9997282361719464  0.3336790159583923  0.3336053774358794
  0.9997271848192427  0.3336808077378197  0.6664652665649038
  0.9996064106587436  0.6665913428342284  0.0000371319811769
  0.9997287682510472  0.6662941164014382  0.3336061384574305
  0.9997269600584479  0.6662944476895200  0.6664676181759646
  0.3419491094092842  0.9999856038344933  0.0000349527621045
  0.3327437782596438  0.9999874208688643  0.3338876161053918
  0.3327459848228569  0.9999893376190558  0.6661836862301318
  0.3336493945782750  0.3333776949896479  0.0000374533356646
  0.3335086404146029  0.3336790973272858  0.3336063719661790
  0.3335087575816839  0.3336829890544980  0.6664673720566916
  0.3336492416329797  0.6665924453376766  0.0000367488973772
  0.3335093147289486  0.6662935417530536  0.3336051032622767
  0.3335072328106199  0.6662953313611584  0.6664664625440153
  0.6666135946401970  0.9999810131995719  0.0000360488110259
  0.6666195478705689  0.9999823776129112  0.3330986071361949
  0.6666219307044021  0.9999825846475288  0.6669748050731316
  0.6666250901210801  0.3335554412022391  0.0000426085047367
  0.6666188965353264  0.3336809380006163  0.3337317701672919
  0.6666186443595297  0.3336832587927336  0.6663516810051787
  0.6666248333909923  0.6664045671876424  0.0000432594105678
  0.6666188870646459  0.6662916697902894  0.3337239576622227
  0.6666176523026911  0.6662827431512400  0.6663520903857980
  0.1666222137644030  0.9999882392126933  0.3337057490522398
  0.1666223846408715  0.9999874227627124  0.6663574978047326
  0.1666214710347307  0.3327889248684440  0.0000316181572988
  0.1666233515607459  0.3330248123251302  0.3331128089891249
  0.1666228562656767  0.3330279690512140  0.6669483925846967
  0.1666226670519426  0.6671847469607327  0.0000312940341891
  0.1666236092310550  0.6669486932090609  0.3331126945810177
  0.1666233069148618  0.6669474751865778  0.6669493682541472
  0.5009910331585745  0.9999873040759668  0.0000306130246581
  0.4991308006804980  0.9999853819371428  0.3313911901139056
  0.4991306713131900  0.9999858368351250  0.6686691601697353
  0.5000883028647116  0.3331098090863466  0.0000324692218697
  0.5000089724441323  0.3331903074108380  0.3334662190252194
  0.5000084456682951  0.3331917353402470  0.6665972573113050
  0.5000885183690353  0.6668601468398132  0.0000340124377230
  0.5000093417601865  0.6667823463488602  0.3334654438120227
  0.5000088276701382  0.6667812115123656  0.6665975750368303
  0.8322443105350668  0.9999849605999307  0.0000327384874040
  0.8341115290238170  0.9999866773999194  0.3313895733466735
  0.8341110593491314  0.9999856183236838  0.6686703827754524
  0.8331551598289068  0.3331102521154074  0.0000320696574796
  0.8332386575281563  0.3331884728164903  0.3334649158239782
  0.8332384082336742  0.3331899496986824  0.6665986018407648
  0.8331555528094103  0.6668622862583382  0.0000331132603774
  0.8332396921096793  0.6667838705436400  0.3334646526055048
  0.8332389402037480  0.6667823243795690  0.6665989105132148
  0.9995827395637535  0.1660479961454515  0.0000317365493480
  0.9998990533750153  0.1663290378294222  0.3329159713666044
  0.9998985798234949  0.1663299958327034  0.6671471851782448
  0.0000489815307227  0.4999864397466123  0.0000312773716309
  0.9999759029215866  0.4999869313352922  0.3335377985504753
  0.9999737728733210  0.4999871512005138  0.6665230210263652
  0.9995844219803907  0.8339252308528388  0.0000328650901346
  0.9998998267924994  0.8336449798627866  0.3329152168253768
  0.9998990160817940  0.8336438893915411  0.6671483551047870
  0.3336576744378569  0.1660464072933292  0.0000313316977748
  0.3333485042171133  0.1663297522883377  0.3329143641891246
  0.3333471743358813  0.1663304738238386  0.6671458317165277
  0.3331997442531914  0.4999862520132069  0.0000321042014895
  0.3332734836783334  0.4999865089880716  0.3335385629714463
  0.3332749475392640  0.4999872537940028  0.6665220599736498
  0.3336588549471816  0.8339278476570696  0.0000315050870879
  0.3333477824648601  0.8336436074854207  0.3329145279505307
  0.3333469950034534  0.8336437930322567  0.6671461252388703
  0.6666156942412227  0.1660759609782125  0.0000322364950734
  0.6666219671695338  0.1664307284704253  0.3334577502315083
  0.6666217612516097  0.1664318170260721  0.6666058152201384
  0.6666188261845748  0.4999853728449632  0.0000340507411770
  0.6666259674343724  0.4999858488221728  0.3334150329526777
  0.6666250708728448  0.4999858854855010  0.6666492982709044
  0.6666137493285201  0.8338946711942470  0.0000328289543520
  0.6666230034185737  0.8335403871860527  0.3334571677529868
  0.6666224128413888  0.8335392166263970  0.6666069057799354
  0.0054948077410265  0.9999876741035395  0.1640103140306761
  0.0000988172380533  0.9999872790371104  0.5000307405735037
  0.0054905918891316  0.9999872835153392  0.8360533191844678
  0.9997321395353228  0.3333837140330073  0.1667901223743715
  0.0000167371528106  0.3330622781087885  0.5000312527114088
  0.9997327188584535  0.3333855460731131  0.8332721612225757
  0.9997336197637186  0.6665886367609769  0.1667904378380047
  0.0000179684918337  0.6669122150509530  0.5000312016704196
  0.9997332690515274  0.6665882005830148  0.8332727582635027
  0.3277489878500751  0.9999879103413903  0.1640104219260766
  0.3331464781289395  0.9999874903035543  0.5000309546286167
  0.3277518343648346  0.9999884383437925  0.8360482713076830
  0.3335154157622367  0.3333845394315063  0.1667906906795681
  0.3332305027899096  0.3330621474237200  0.5000309639573848
  0.3335145997989949  0.3333857250221955  0.8332715470106590
  0.3335150101728334  0.6665873520352855  0.1667906663133745
  0.3332306361100886  0.6669113295575783  0.5000308664926693
  0.3335154962459774  0.6665877744881490  0.8332721333619951
  0.6666139356014835  0.9999854296252015  0.1661112342965290
  0.6666205196671003  0.9999854526366035  0.5000307844564543
  0.6666160139567592  0.9999857328311981  0.8339523126310855
  0.6666210895484984  0.3330269781157795  0.1667905781902292
  0.6666245396763560  0.3332710859734576  0.5000322963785973
  0.6666203420371325  0.3330289240188548  0.8332754150257436
  0.6666223495765399  0.6669430131119783  0.1667905293110193
  0.6666253580008454  0.6667010854224930  0.5000322877228106
  0.6666211777217170  0.6669412773567127  0.8332764485596192
  0.1666186078830852  0.9999874433821232  0.0000277467580005
 
  0.00000000E+00  0.00000000E+00  0.00000000E+00
  0.00000000E+00  0.00000000E+00  0.00000000E+00
  0.00000000E+00  0.00000000E+00  0.00000000E+00
  0.00000000E+00  0.00000000E+00  0.00000000E+00
  0.00000000E+00  0.00000000E+00  0.00000000E+00
  0.00000000E+00  0.00000000E+00  0.00000000E+00
  0.00000000E+00  0.00000000E+00  0.00000000E+00
  0.00000000E+00  0.00000000E+00  0.00000000E+00
  0.00000000E+00  0.00000000E+00  0.00000000E+00
  0.00000000E+00  0.00000000E+00  0.00000000E+00
  0.00000000E+00  0.00000000E+00  0.00000000E+00
  0.00000000E+00  0.00000000E+00  0.00000000E+00
  0.00000000E+00  0.00000000E+00  0.00000000E+00
  0.00000000E+00  0.00000000E+00  0.00000000E+00
  0.00000000E+00  0.00000000E+00  0.00000000E+00
  0.00000000E+00  0.00000000E+00  0.00000000E+00
  0.00000000E+00  0.00000000E+00  0.00000000E+00
  0.00000000E+00  0.00000000E+00  0.00000000E+00
  0.00000000E+00  0.00000000E+00  0.00000000E+00
  0.00000000E+00  0.00000000E+00  0.00000000E+00
  0.00000000E+00  0.00000000E+00  0.00000000E+00
  0.00000000E+00  0.00000000E+00  0.00000000E+00
  0.00000000E+00  0.00000000E+00  0.00000000E+00
  0.00000000E+00  0.00000000E+00  0.00000000E+00
  0.00000000E+00  0.00000000E+00  0.00000000E+00
  0.00000000E+00  0.00000000E+00  0.00000000E+00
  0.00000000E+00  0.00000000E+00  0.00000000E+00
  0.00000000E+00  0.00000000E+00  0.00000000E+00
  0.00000000E+00  0.00000000E+00  0.00000000E+00
  0.00000000E+00  0.00000000E+00  0.00000000E+00
  0.00000000E+00  0.00000000E+00  0.00000000E+00
  0.00000000E+00  0.00000000E+00  0.00000000E+00
  0.00000000E+00  0.00000000E+00  0.00000000E+00
  0.00000000E+00  0.00000000E+00  0.00000000E+00
  0.00000000E+00  0.00000000E+00  0.00000000E+00
  0.00000000E+00  0.00000000E+00  0.00000000E+00
  0.00000000E+00  0.00000000E+00  0.00000000E+00
  0.00000000E+00  0.00000000E+00  0.00000000E+00
  0.00000000E+00  0.00000000E+00  0.00000000E+00
  0.00000000E+00  0.00000000E+00  0.00000000E+00
  0.00000000E+00  0.00000000E+00  0.00000000E+00
  0.00000000E+00  0.00000000E+00  0.00000000E+00
  0.00000000E+00  0.00000000E+00  0.00000000E+00
  0.00000000E+00  0.00000000E+00  0.00000000E+00
  0.00000000E+00  0.00000000E+00  0.00000000E+00
  0.00000000E+00  0.00000000E+00  0.00000000E+00
  0.00000000E+00  0.00000000E+00  0.00000000E+00
  0.00000000E+00  0.00000000E+00  0.00000000E+00
  0.00000000E+00  0.00000000E+00  0.00000000E+00
  0.00000000E+00  0.00000000E+00  0.00000000E+00
  0.00000000E+00  0.00000000E+00  0.00000000E+00
  0.00000000E+00  0.00000000E+00  0.00000000E+00
  0.00000000E+00  0.00000000E+00  0.00000000E+00
  0.00000000E+00  0.00000000E+00  0.00000000E+00
  0.00000000E+00  0.00000000E+00  0.00000000E+00
  0.00000000E+00  0.00000000E+00  0.00000000E+00
  0.00000000E+00  0.00000000E+00  0.00000000E+00
  0.00000000E+00  0.00000000E+00  0.00000000E+00
  0.00000000E+00  0.00000000E+00  0.00000000E+00
  0.00000000E+00  0.00000000E+00  0.00000000E+00
  0.00000000E+00  0.00000000E+00  0.00000000E+00
  0.00000000E+00  0.00000000E+00  0.00000000E+00
  0.00000000E+00  0.00000000E+00  0.00000000E+00
  0.00000000E+00  0.00000000E+00  0.00000000E+00
  0.00000000E+00  0.00000000E+00  0.00000000E+00
  0.00000000E+00  0.00000000E+00  0.00000000E+00
  0.00000000E+00  0.00000000E+00  0.00000000E+00
  0.00000000E+00  0.00000000E+00  0.00000000E+00
  0.00000000E+00  0.00000000E+00  0.00000000E+00
  0.00000000E+00  0.00000000E+00  0.00000000E+00
  0.00000000E+00  0.00000000E+00  0.00000000E+00
  0.00000000E+00  0.00000000E+00  0.00000000E+00
  0.00000000E+00  0.00000000E+00  0.00000000E+00
  0.00000000E+00  0.00000000E+00  0.00000000E+00
  0.00000000E+00  0.00000000E+00  0.00000000E+00
  0.00000000E+00  0.00000000E+00  0.00000000E+00
  0.00000000E+00  0.00000000E+00  0.00000000E+00
  0.00000000E+00  0.00000000E+00  0.00000000E+00
  0.00000000E+00  0.00000000E+00  0.00000000E+00
  0.00000000E+00  0.00000000E+00  0.00000000E+00
  0.00000000E+00  0.00000000E+00  0.00000000E+00
  0.00000000E+00  0.00000000E+00  0.00000000E+00
  0.00000000E+00  0.00000000E+00  0.00000000E+00
  0.00000000E+00  0.00000000E+00  0.00000000E+00
  0.00000000E+00  0.00000000E+00  0.00000000E+00
  0.00000000E+00  0.00000000E+00  0.00000000E+00
  0.00000000E+00  0.00000000E+00  0.00000000E+00
  0.00000000E+00  0.00000000E+00  0.00000000E+00
  0.00000000E+00  0.00000000E+00  0.00000000E+00
  0.00000000E+00  0.00000000E+00  0.00000000E+00
  0.00000000E+00  0.00000000E+00  0.00000000E+00
  0.00000000E+00  0.00000000E+00  0.00000000E+00
  0.00000000E+00  0.00000000E+00  0.00000000E+00
  0.00000000E+00  0.00000000E+00  0.00000000E+00
  0.00000000E+00  0.00000000E+00  0.00000000E+00
  0.00000000E+00  0.00000000E+00  0.00000000E+00
  0.00000000E+00  0.00000000E+00  0.00000000E+00
  0.00000000E+00  0.00000000E+00  0.00000000E+00
  0.00000000E+00  0.00000000E+00  0.00000000E+00
  0.00000000E+00  0.00000000E+00  0.00000000E+00
  0.00000000E+00  0.00000000E+00  0.00000000E+00
  0.00000000E+00  0.00000000E+00  0.00000000E+00
  0.00000000E+00  0.00000000E+00  0.00000000E+00
  0.00000000E+00  0.00000000E+00  0.00000000E+00
  0.00000000E+00  0.00000000E+00  0.00000000E+00
  0.00000000E+00  0.00000000E+00  0.00000000E+00
  0.00000000E+00  0.00000000E+00  0.00000000E+00
  0.00000000E+00  0.00000000E+00  0.00000000E+00
  0.00000000E+00  0.00000000E+00  0.00000000E+00
  0.00000000E+00  0.00000000E+00  0.00000000E+00
  0.00000000E+00  0.00000000E+00  0.00000000E+00
  0.00000000E+00  0.00000000E+00  0.00000000E+00
  0.00000000E+00  0.00000000E+00  0.00000000E+00
  0.00000000E+00  0.00000000E+00  0.00000000E+00
  0.00000000E+00  0.00000000E+00  0.00000000E+00
  0.00000000E+00  0.00000000E+00  0.00000000E+00
  0.00000000E+00  0.00000000E+00  0.00000000E+00
  0.00000000E+00  0.00000000E+00  0.00000000E+00
  0.00000000E+00  0.00000000E+00  0.00000000E+00
  0.00000000E+00  0.00000000E+00  0.00000000E+00
  0.00000000E+00  0.00000000E+00  0.00000000E+00
  0.00000000E+00  0.00000000E+00  0.00000000E+00
  0.00000000E+00  0.00000000E+00  0.00000000E+00
  0.00000000E+00  0.00000000E+00  0.00000000E+00
  0.00000000E+00  0.00000000E+00  0.00000000E+00
  0.00000000E+00  0.00000000E+00  0.00000000E+00
  0.00000000E+00  0.00000000E+00  0.00000000E+00
  0.00000000E+00  0.00000000E+00  0.00000000E+00
  0.00000000E+00  0.00000000E+00  0.00000000E+00
  0.00000000E+00  0.00000000E+00  0.00000000E+00
  0.00000000E+00  0.00000000E+00  0.00000000E+00
  0.00000000E+00  0.00000000E+00  0.00000000E+00
  0.00000000E+00  0.00000000E+00  0.00000000E+00
  0.00000000E+00  0.00000000E+00  0.00000000E+00
  0.00000000E+00  0.00000000E+00  0.00000000E+00
