Ti27 Pb27 O81                       
   1.00000000000000     
    11.8378881194251235    0.0000000000000000    0.0000000000000000
     0.0000000000000000   11.8378881194251235    0.0000000000000000
     0.0000000000000000    0.0000000000000000   11.8830659889828141
   Pb   Ti   O    O
    27    27    80     1
Direct
  0.9975804103610775  0.9937758115322753  0.0064170693270024
  0.9969757064143304  0.9957360071438603  0.3410680699029432
  0.9981538559880084  0.9985362454044425  0.6727416268212055
  0.9975721661760988  0.3395112337867666  0.0064500351019253
  0.9969821710659315  0.3373897670149775  0.3410424104321723
  0.9982435176443497  0.3345913804941257  0.6726775670092361
  0.0011269724161381  0.6665693953540806  0.0061114069473870
  0.0014570631115984  0.6665971990205963  0.3396950375765699
  0.0012872096275585  0.6665740504165579  0.6726512816559317
  0.3357100548842408  0.9937461615987517  0.0064295432054245
  0.3362709787091394  0.9956958673991972  0.3410584099447613
  0.3351140234408981  0.9985027023929173  0.6727350235686814
  0.3357271629155613  0.3395071610833614  0.0064634574998936
  0.3363290094223397  0.3374260224979353  0.3410642429636721
  0.3350306424592329  0.3346072253608938  0.6726115164676809
  0.3321715355692491  0.6665962501136795  0.0060941641328569
  0.3318039354577976  0.6666407865171914  0.3396874378796128
  0.3319475374917938  0.6665966599920818  0.6726586980617744
  0.6666094441009948  0.0017422102969506  0.0062359076764493
  0.6666242472657763  0.0000373310504184  0.3386565977149326
  0.6666498311969186  0.0015184715999838  0.6727485967668819
  0.6666525241287202  0.3314291918798634  0.0062262751234289
  0.6666462046555985  0.3330609719728264  0.3387050518175438
  0.6665968971516260  0.3316304677438519  0.6726751270965995
  0.6666589403613347  0.6666406822046131  0.0051261952271401
  0.6666582326250482  0.6666296905659368  0.3387915529431335
  0.6666509936437662  0.6665692463119430  0.6716490292380147
  0.1666155695236257  0.1665746843802452  0.2003090839131876
  0.1666222510183566  0.1665606679848929  0.5231054313630890
  0.1666350217650948  0.1666071479324341  0.8508339478072636
  0.1666321938400052  0.4994153583305267  0.1875142302685541
  0.1666176899180774  0.4995880853653328  0.5207141901012897
  0.1666483386772512  0.4994773982062780  0.8533798377156069
  0.1666132394412592  0.8337802003614889  0.1874838820751752
  0.1666146600557553  0.8336029417330212  0.5207332485797599
  0.1666373147176619  0.8337272499569715  0.8533807408860217
  0.4996581372459565  0.1665812995384633  0.1869593483502161
  0.4991698897144712  0.1665595769814392  0.5202395397697284
  0.4990440396496536  0.1666318606125795  0.8546771157456446
  0.5002816783235405  0.5003501302689708  0.1869818998189146
  0.5003667164915110  0.5001963993742951  0.5204536498837159
  0.5005660862432195  0.5003454433249712  0.8532883393193544
  0.5002693407975657  0.8328270054627307  0.1869724003591784
  0.5003818961453005  0.8329464270097346  0.5204695484580713
  0.5005598598311179  0.8328547125912241  0.8533000296280541
  0.8335639916552725  0.1665726627527474  0.1869594728728648
  0.8340618619380075  0.1665735216272146  0.5202393632306194
  0.8341999309495690  0.1666310404705563  0.8546821400042529
  0.8329658233989662  0.5003374783061038  0.1869914268626410
  0.8328934393654752  0.5001788829972192  0.5204514314245059
  0.8327336297239406  0.5003521515152998  0.8532911891157461
  0.8329845297620222  0.8328347398575257  0.1869700982928615
  0.8328830268676042  0.8329467768260606  0.5204699754828751
  0.8327321574002858  0.8328583653400977  0.8533078614702096
  0.1666192513319311  0.1665679592284167  0.3645313879447975
  0.1666259259084819  0.1666188952911629  0.6957360708098248
  0.1666121059113569  0.4991586152785905  0.0299453261284253
  0.1666318152776214  0.5009483010702089  0.3632235713372165
  0.1666319503142691  0.5015785822854179  0.6962609475262586
  0.1666363123057914  0.8340038903729642  0.0299305930535827
  0.1666404618775454  0.8322594028016339  0.3632305588736300
  0.1666379552677469  0.8315773658937757  0.6962591439007961
  0.5047091624271227  0.1665605388896538  0.0298645634993857
  0.4962653138041345  0.1665877864178736  0.3626077244605863
  0.4978432698250191  0.1665796083392024  0.6971686029937345
  0.4982755681751983  0.4987780327951828  0.0297093721891899
  0.4989500982918480  0.4983199069738483  0.3629423766719687
  0.4996856137479070  0.4995457756583588  0.6962290865904959
  0.4982521053251782  0.8344049071595970  0.0297000150830446
  0.4989808506417542  0.8348447523892525  0.3629471545735221
  0.4996554722237947  0.8336764050719161  0.6962343798671610
  0.8285553872199112  0.1665608807401320  0.0298668759706354
  0.8369946146849749  0.1665812235289403  0.3626068141538275
  0.8354411457893665  0.1665766261311612  0.6971684421980987
  0.8349901891943140  0.4987812363296277  0.0297104909068869
  0.8343028850182610  0.4983517330181370  0.3629448820432858
  0.8335871221582355  0.4995537982921552  0.6962363623238323
  0.8349888428298491  0.8343980333660680  0.0296987910755549
  0.8342654399449835  0.8348223402510081  0.3629504644411624
  0.8335934383407571  0.8336628583501919  0.6962441445424747
  0.1666259380507305  0.9999215294658395  0.2062433337174503
  0.1666362661880706  0.9999283092431639  0.5382223119781649
  0.1666335515138175  0.9998968090700400  0.8706401259317819
  0.1666190940075963  0.3332341432263596  0.2062444848472935
  0.1666356319955398  0.3332396801984725  0.5381915276679942
  0.1666265913292222  0.3333023424685227  0.8706649009504736
  0.1666289496915076  0.6665926305306442  0.2042409366111568
  0.1666260911546422  0.6665901373162221  0.5377620170425582
  0.1666281716692394  0.6665922687941535  0.8720404754716738
  0.4996526675755491 -0.0000190187556913  0.2042037237308410
  0.4997208322265881  0.0000559332716108  0.5378708139817263
  0.4987620407877418  0.9998911580624312  0.8713315209074874
  0.4996617563028673  0.3331708186259571  0.2042057788242520
  0.4997364897548175  0.3331064456809340  0.5378562445719489
  0.4987906959218146  0.3333151973713274  0.8713471551745887
  0.5006135196929659  0.6665894756237137  0.2046605890605223
  0.5002890012926635  0.6665889464791428  0.5372164145779360
  0.5007013252941356  0.6666044839411440  0.8715692304466429
  0.8336066436872930 -0.0000173078300475  0.2042184164927514
  0.8335456247821759  0.0000567243579696  0.5378741382680249
  0.8344991585493838  0.9998910225580886  0.8713331902214907
  0.8336009595978688  0.3331660430953859  0.2042119217507273
  0.8335329136878219  0.3331081947385542  0.5378621039918029
  0.8344840778178090  0.3333124513114984  0.8713443578858339
  0.8326493123891120  0.6665863522268514  0.2046613383160431
  0.8329791997948343  0.6665841278732603  0.5372211201592269
  0.8325640436583199  0.6666079002019005  0.8715644442176956
  0.0017028318420772  0.1665708262357537  0.1976431434119107
  0.0003955899643827  0.1665980716488737  0.5386405046364922
  0.0018533825731683  0.1665767769275222  0.8767583974337059
  0.9998698575799543  0.4998012033442247  0.2045945991008560
  0.9998378559653442  0.4995452583884102  0.5374066549527623
  0.9998481244325844  0.5003031974124398  0.8711969750411080
  0.9998793755773199  0.8333679672353160  0.2046062248336965
  0.9998365114465863  0.8336438261699539  0.5374005547708789
  0.9998428482551768  0.8328901639650618  0.8711811083913515
  0.3315401652320819  0.1665704843405708  0.1976170178595033
  0.3328643997773594  0.1666024877568855  0.5386446289859089
  0.3314088119364699  0.1665850086574692  0.8767648514838184
  0.3333880258115752  0.4997948850740415  0.2045856501618974
  0.3334170666129592  0.4995456913357417  0.5374059235881352
  0.3334289079636583  0.5003062465455141  0.8712021184459033
  0.3333793009305507  0.8333688269650992  0.2045983471191207
  0.3334184472680950  0.8336373311744667  0.5374016807704454
  0.3334300970644452  0.8328853666289107  0.8711701435040812
  0.6666235307458608  0.1665607382639799  0.2071126801411725
  0.6666299243207250  0.1665843205349622  0.5378956746074636
  0.6666320843984248  0.1665813454937623  0.8678911723026371
  0.6666305139564468  0.4997171089734352  0.2044788778016479
  0.6666274601935154  0.4999389533468231  0.5374863989862081
  0.6666401316821636  0.4997411927899731  0.8716896115592295
  0.6666284478964022  0.8334546992070694  0.2044574381982370
  0.6666263362881354  0.8332404794797472  0.5375035845323890
  0.6666385515115972  0.8334711751907139  0.8716782048423360
  0.1666181663757284  0.1665621408828087  0.0310364236773276
 
  0.00000000E+00  0.00000000E+00  0.00000000E+00
  0.00000000E+00  0.00000000E+00  0.00000000E+00
  0.00000000E+00  0.00000000E+00  0.00000000E+00
  0.00000000E+00  0.00000000E+00  0.00000000E+00
  0.00000000E+00  0.00000000E+00  0.00000000E+00
  0.00000000E+00  0.00000000E+00  0.00000000E+00
  0.00000000E+00  0.00000000E+00  0.00000000E+00
  0.00000000E+00  0.00000000E+00  0.00000000E+00
  0.00000000E+00  0.00000000E+00  0.00000000E+00
  0.00000000E+00  0.00000000E+00  0.00000000E+00
  0.00000000E+00  0.00000000E+00  0.00000000E+00
  0.00000000E+00  0.00000000E+00  0.00000000E+00
  0.00000000E+00  0.00000000E+00  0.00000000E+00
  0.00000000E+00  0.00000000E+00  0.00000000E+00
  0.00000000E+00  0.00000000E+00  0.00000000E+00
  0.00000000E+00  0.00000000E+00  0.00000000E+00
  0.00000000E+00  0.00000000E+00  0.00000000E+00
  0.00000000E+00  0.00000000E+00  0.00000000E+00
  0.00000000E+00  0.00000000E+00  0.00000000E+00
  0.00000000E+00  0.00000000E+00  0.00000000E+00
  0.00000000E+00  0.00000000E+00  0.00000000E+00
  0.00000000E+00  0.00000000E+00  0.00000000E+00
  0.00000000E+00  0.00000000E+00  0.00000000E+00
  0.00000000E+00  0.00000000E+00  0.00000000E+00
  0.00000000E+00  0.00000000E+00  0.00000000E+00
  0.00000000E+00  0.00000000E+00  0.00000000E+00
  0.00000000E+00  0.00000000E+00  0.00000000E+00
  0.00000000E+00  0.00000000E+00  0.00000000E+00
  0.00000000E+00  0.00000000E+00  0.00000000E+00
  0.00000000E+00  0.00000000E+00  0.00000000E+00
  0.00000000E+00  0.00000000E+00  0.00000000E+00
  0.00000000E+00  0.00000000E+00  0.00000000E+00
  0.00000000E+00  0.00000000E+00  0.00000000E+00
  0.00000000E+00  0.00000000E+00  0.00000000E+00
  0.00000000E+00  0.00000000E+00  0.00000000E+00
  0.00000000E+00  0.00000000E+00  0.00000000E+00
  0.00000000E+00  0.00000000E+00  0.00000000E+00
  0.00000000E+00  0.00000000E+00  0.00000000E+00
  0.00000000E+00  0.00000000E+00  0.00000000E+00
  0.00000000E+00  0.00000000E+00  0.00000000E+00
  0.00000000E+00  0.00000000E+00  0.00000000E+00
  0.00000000E+00  0.00000000E+00  0.00000000E+00
  0.00000000E+00  0.00000000E+00  0.00000000E+00
  0.00000000E+00  0.00000000E+00  0.00000000E+00
  0.00000000E+00  0.00000000E+00  0.00000000E+00
  0.00000000E+00  0.00000000E+00  0.00000000E+00
  0.00000000E+00  0.00000000E+00  0.00000000E+00
  0.00000000E+00  0.00000000E+00  0.00000000E+00
  0.00000000E+00  0.00000000E+00  0.00000000E+00
  0.00000000E+00  0.00000000E+00  0.00000000E+00
  0.00000000E+00  0.00000000E+00  0.00000000E+00
  0.00000000E+00  0.00000000E+00  0.00000000E+00
  0.00000000E+00  0.00000000E+00  0.00000000E+00
  0.00000000E+00  0.00000000E+00  0.00000000E+00
  0.00000000E+00  0.00000000E+00  0.00000000E+00
  0.00000000E+00  0.00000000E+00  0.00000000E+00
  0.00000000E+00  0.00000000E+00  0.00000000E+00
  0.00000000E+00  0.00000000E+00  0.00000000E+00
  0.00000000E+00  0.00000000E+00  0.00000000E+00
  0.00000000E+00  0.00000000E+00  0.00000000E+00
  0.00000000E+00  0.00000000E+00  0.00000000E+00
  0.00000000E+00  0.00000000E+00  0.00000000E+00
  0.00000000E+00  0.00000000E+00  0.00000000E+00
  0.00000000E+00  0.00000000E+00  0.00000000E+00
  0.00000000E+00  0.00000000E+00  0.00000000E+00
  0.00000000E+00  0.00000000E+00  0.00000000E+00
  0.00000000E+00  0.00000000E+00  0.00000000E+00
  0.00000000E+00  0.00000000E+00  0.00000000E+00
  0.00000000E+00  0.00000000E+00  0.00000000E+00
  0.00000000E+00  0.00000000E+00  0.00000000E+00
  0.00000000E+00  0.00000000E+00  0.00000000E+00
  0.00000000E+00  0.00000000E+00  0.00000000E+00
  0.00000000E+00  0.00000000E+00  0.00000000E+00
  0.00000000E+00  0.00000000E+00  0.00000000E+00
  0.00000000E+00  0.00000000E+00  0.00000000E+00
  0.00000000E+00  0.00000000E+00  0.00000000E+00
  0.00000000E+00  0.00000000E+00  0.00000000E+00
  0.00000000E+00  0.00000000E+00  0.00000000E+00
  0.00000000E+00  0.00000000E+00  0.00000000E+00
  0.00000000E+00  0.00000000E+00  0.00000000E+00
  0.00000000E+00  0.00000000E+00  0.00000000E+00
  0.00000000E+00  0.00000000E+00  0.00000000E+00
  0.00000000E+00  0.00000000E+00  0.00000000E+00
  0.00000000E+00  0.00000000E+00  0.00000000E+00
  0.00000000E+00  0.00000000E+00  0.00000000E+00
  0.00000000E+00  0.00000000E+00  0.00000000E+00
  0.00000000E+00  0.00000000E+00  0.00000000E+00
  0.00000000E+00  0.00000000E+00  0.00000000E+00
  0.00000000E+00  0.00000000E+00  0.00000000E+00
  0.00000000E+00  0.00000000E+00  0.00000000E+00
  0.00000000E+00  0.00000000E+00  0.00000000E+00
  0.00000000E+00  0.00000000E+00  0.00000000E+00
  0.00000000E+00  0.00000000E+00  0.00000000E+00
  0.00000000E+00  0.00000000E+00  0.00000000E+00
  0.00000000E+00  0.00000000E+00  0.00000000E+00
  0.00000000E+00  0.00000000E+00  0.00000000E+00
  0.00000000E+00  0.00000000E+00  0.00000000E+00
  0.00000000E+00  0.00000000E+00  0.00000000E+00
  0.00000000E+00  0.00000000E+00  0.00000000E+00
  0.00000000E+00  0.00000000E+00  0.00000000E+00
  0.00000000E+00  0.00000000E+00  0.00000000E+00
  0.00000000E+00  0.00000000E+00  0.00000000E+00
  0.00000000E+00  0.00000000E+00  0.00000000E+00
  0.00000000E+00  0.00000000E+00  0.00000000E+00
  0.00000000E+00  0.00000000E+00  0.00000000E+00
  0.00000000E+00  0.00000000E+00  0.00000000E+00
  0.00000000E+00  0.00000000E+00  0.00000000E+00
  0.00000000E+00  0.00000000E+00  0.00000000E+00
  0.00000000E+00  0.00000000E+00  0.00000000E+00
  0.00000000E+00  0.00000000E+00  0.00000000E+00
  0.00000000E+00  0.00000000E+00  0.00000000E+00
  0.00000000E+00  0.00000000E+00  0.00000000E+00
  0.00000000E+00  0.00000000E+00  0.00000000E+00
  0.00000000E+00  0.00000000E+00  0.00000000E+00
  0.00000000E+00  0.00000000E+00  0.00000000E+00
  0.00000000E+00  0.00000000E+00  0.00000000E+00
  0.00000000E+00  0.00000000E+00  0.00000000E+00
  0.00000000E+00  0.00000000E+00  0.00000000E+00
  0.00000000E+00  0.00000000E+00  0.00000000E+00
  0.00000000E+00  0.00000000E+00  0.00000000E+00
  0.00000000E+00  0.00000000E+00  0.00000000E+00
  0.00000000E+00  0.00000000E+00  0.00000000E+00
  0.00000000E+00  0.00000000E+00  0.00000000E+00
  0.00000000E+00  0.00000000E+00  0.00000000E+00
  0.00000000E+00  0.00000000E+00  0.00000000E+00
  0.00000000E+00  0.00000000E+00  0.00000000E+00
  0.00000000E+00  0.00000000E+00  0.00000000E+00
  0.00000000E+00  0.00000000E+00  0.00000000E+00
  0.00000000E+00  0.00000000E+00  0.00000000E+00
  0.00000000E+00  0.00000000E+00  0.00000000E+00
  0.00000000E+00  0.00000000E+00  0.00000000E+00
  0.00000000E+00  0.00000000E+00  0.00000000E+00
  0.00000000E+00  0.00000000E+00  0.00000000E+00
  0.00000000E+00  0.00000000E+00  0.00000000E+00
  0.00000000E+00  0.00000000E+00  0.00000000E+00
