Sr32 Ti32 O96                       
   1.00000000000000     
    11.0288193702468078    0.0000000000000000    0.0000000000000000
     0.0000000000000000   11.0288193702468078    0.0000000000000000
     0.0000000000000000    0.0000000000000000   15.7893945456516640
   Sr   Ti   O    O 
    32    32    95     1
Direct
  0.2452864560002884  0.9952988940368601  0.1284585478202249
  0.2501548196131715  0.0000636753894543  0.6242624354712792
  0.2502323102879163  0.5031960042503393  0.1261436732354190
  0.2503672364045540  0.4998862446779304  0.6248099983187494
  0.7531391688033643  0.0001553214476185  0.1261632131395292
  0.7501209612159689  0.0003151210155692  0.6247920970389449
  0.7492969799890858  0.4995025035684140  0.1255677646290470
  0.7502555816936659  0.4999567578113059  0.6250029436741136
  0.0005356971232081  0.2501814327165714  0.3747115605792996
  0.9970317343973073  0.2493084946064856  0.8744389184336329
  0.0001739928822600  0.7499553208381555  0.3751430839207220
  0.9997776912172792  0.7498402129488376  0.8741653078966364
  0.5006930969337863  0.2504891693411940  0.3758487371959383
  0.5013922501014197  0.2515906750295966  0.8738376911989839
  0.5003532262139457  0.7503364454262083  0.3747540505957439
  0.4992690190861310  0.7471276424138150  0.8744294134139093
  0.9970255673017671  0.2493184319936481  0.1254555297920188
  0.0005068080013054  0.2501804696798172  0.6251836622646835
  0.9997326232768601  0.7498253244937010  0.1257926615195651
  0.0001571161726308  0.7499396777597024  0.6248167057548117
  0.5013853165012033  0.2515832175397477  0.1261113552013658
  0.5006848483185464  0.2504999557244466  0.6240879202775126
  0.4993070723794380  0.7471055761460631  0.1254836646690607
  0.5003617506276002  0.7503373223046806  0.6251663618428065
  0.2501351353446547  0.0000486054882908  0.3756242899780877
  0.2452876056145590  0.9952796323758474  0.8714628496137504
  0.2503627776307655  0.4998976352956712  0.3751190311835865
  0.2502195433134784  0.5031832526402166  0.8737849669640996
  0.7501289603126280  0.0003245812435577  0.3751539114766106
  0.7531250858893888  0.0001775125085472  0.8737715058562593
  0.7502594068751594  0.4999435165790806  0.3749326646252577
  0.7492831350419116  0.4994700847588187  0.8743537966284450
  0.9997806744729804 -0.0000178551290216  0.2506160139577434
  0.9997608176142807 -0.0000047201633097  0.7492640534232907
  0.0000184507994078  0.4997634794979692  0.2497475452863691
  0.0000218094715174  0.4997456820502699  0.7501301969843598
  0.4994447337368291  0.0006023356896694  0.2503213120584658
  0.4994389481246613  0.0006078076932239  0.7495858452989131
  0.4999676711219156  0.4998186008405707  0.2502448183517526
  0.4999538361801571  0.4998445229871307  0.7496681854001143
  0.2500268553900565  0.2503788107906094  0.4999781820401679
  0.2447843661252981  0.2565529205886038  0.9999727787772980
  0.2500713473013748  0.7498739108539203  0.4999782407950591
  0.2501722296263484  0.7503747675689225  0.9999796406680107
  0.7504111751656203  0.2499730867521340  0.4999833878481336
  0.7498676180855465  0.2499662297012453  0.9999855788714488
  0.7499347946598803  0.7501228920332134  0.4999845996188281
  0.7515844664098897  0.7483707210426506 -0.0000212786822584
  0.0002125582357066  0.0002850589385390  0.9999418087872450
  0.0000657743925323  0.9998290364267853  0.4999388676880699
  0.9983980922273746  0.5016628914977190  0.9999298558180147
  0.0004259776152824  0.4996176990496518  0.4999299330167384
  0.5065500286916148  0.9950917191824507  0.9999565473009853
  0.5006519419386575  0.9997045216262500  0.4999454046807906
  0.4998035974274507  0.5000055802847472  0.9999492584423165
  0.5001187175010311  0.5001893180911952  0.4999502857030381
  0.2506373289733608  0.2493962968256021  0.2502422167854902
  0.2506460856178642  0.2493876550360320  0.7497026529095059
  0.2500333225190721  0.7496954684075238  0.2506485560386417
  0.2500160022575585  0.7496985218440260  0.7492931805236756
  0.7498552592556450  0.2499265556161042  0.2501185072026351
  0.7498360289392320  0.2499260898078349  0.7498278698501424
  0.7498664596071537  0.7499592717815248  0.2499329705892035
  0.7498742923565186  0.7499529148165229  0.7500642009161980
  0.3581304417646611  0.1077708834408690  0.4999187266940839
  0.3567456257079430  0.6071384552136448  0.9999702660796158
  0.3574054342008746  0.6073097881320126  0.4999627875763804
  0.8570966301624444  0.1068598735789857  0.9999579247186630
  0.8575681395126530  0.1071581108864620  0.4999677804235310
  0.8558004604172929  0.6058339753353591  0.9999179198738346
  0.8576727923628706  0.6072908761205038  0.4999288914655241
  0.1087703084816623  0.3571395364559316  0.2464390321862019
  0.1087589551020647  0.3571312380687159  0.7533946399550427
  0.1082474243432509  0.8582465948407096  0.2492460785301611
  0.1082340352270292  0.8582435968932230  0.7506809984924370
  0.6078895959777099  0.3579283195078694  0.2499498625900966
  0.6078784935445517  0.3579354227354417  0.7499867478217362
  0.6071586828770140  0.8587643371636934  0.2465016879381737
  0.6071590810229257  0.8587752630936526  0.7533759308219722
  0.1057543157749947  0.1454017661672371  0.9999463055287603
  0.1077553732022885  0.1424770563030406  0.4999472597756384
  0.1062503087298517  0.6442811179810872  0.9999729903335441
  0.1072089907182344  0.6425144263312572  0.4999650901511351
  0.6070424062642930  0.1423023939258026  0.9999713648194190
  0.6076651882696116  0.1423841539852226  0.4999619394461153
  0.6069279554246171  0.6436229292178898  0.9999409906862847
  0.6072482504085942  0.6425980086922646  0.4999484979920714
  0.3575139629841159  0.3919925769383849  0.2483792410514315
  0.3575006300094363  0.3920122180748310  0.7515072509126151
  0.3576971464059189  0.8923224450622674  0.2505448415310589
  0.3576949230940568  0.8923271958073191  0.7494024544313328
  0.8581269330639790  0.3918466320014845  0.2497378078555245
  0.8581207589930318  0.3918501830486844  0.7502085803467282
  0.8579312927247573  0.8920650251646202  0.2500630882131410
  0.8579217799278498  0.8920829755211291  0.7498493405581905
  0.1423159162006177  0.1075701780186380  0.2506021341064821
  0.1423218783578898  0.1075610642317688  0.7493488961801099
  0.1420571259655936  0.6078219526777587  0.2501090175163089
  0.1420706945941433  0.6078050775315340  0.7497906230304150
  0.6419948568923656  0.1074189568061657  0.2485544298395898
  0.6420014624071866  0.1074151198648260  0.7513530121949447
  0.6418354955394833  0.6080488919610515  0.2500620416052661
  0.6418347535757337  0.6080517591768370  0.7499246653900882
  0.3927657930437354  0.3573782173110491  0.4999667793479781
  0.3920435511785970  0.3573033440914750  0.9999725552110328
  0.3928441270232974  0.8575087024145868  0.4999531452036744
  0.3953261663006913  0.8560683813220280  0.9999537557070922
  0.8929631920342396  0.3570230741713313  0.4999473672652012
  0.8934686861050520  0.3571814656712625  0.9999523339693472
  0.8928483818051687  0.8569955128793314  0.4999792101481372
  0.8941820139211502  0.8564163429923046  0.9999774908061465
  0.3928104467480824  0.1427337293238440  0.2526178877681194
  0.3928275803021603  0.1427545156618188  0.7473830707392418
  0.3919198532837181  0.6418756169705300  0.2500887879184865
  0.3919220298057514  0.6418972207847159  0.7498207423034065
  0.8919697372733593  0.1418313564130667  0.2500283424761073
  0.8919673797804276  0.1418461334480205  0.7498923323727604
  0.8920605176494779  0.6419373058256096  0.2508460720032719
  0.8920784354766507  0.6419377600798654  0.7491878940055023
  0.1431854646332209  0.3928839255669818  0.4999985735484177
  0.1435629624454192  0.3959496631291490  0.0000053439844786
  0.1427423303753123  0.8925915631491498  0.4999495892366228
  0.1443165380483911  0.8945153310973269  0.9999575214606172
  0.6427951973818619  0.3926546906463310  0.4999514768141990
  0.6425155059265223  0.3927607474210175  0.9999489059259461
  0.6430847487937822  0.8928942047519280  0.5000111923160636
  0.6458727348672493  0.8938858714921032  0.9999954766157158
  0.0000663195993495  0.9994501663808458  0.3750226426096290
  0.0000424075015235  0.0004882097221779  0.8748530822354426
  0.0014153186131077  0.4978102246229247  0.3746097820029610
  0.9994192175892274  0.5014731117613312  0.8752665667283664
  0.5017398430978034  0.9986610969018846  0.3747070057460615
  0.4915531619672336  0.0063254703116354  0.8768134537231201
  0.4994150136261608  0.4992993233702040  0.3748487834346601
  0.5002127016499532  0.5008081121584487  0.8749775610792618
  0.2556390229425062  0.2417522372454840  0.1230873912092143
  0.2491027860097735  0.2513718004272716  0.6252440885468784
  0.2503414890587077  0.7501513746698375  0.1250774698100540
  0.2497299040173310  0.7500270152697744  0.6248847914768116
  0.7504927085660099  0.2501741877724319  0.1249052068590391
  0.7496307804814145  0.2495736913200290  0.6251209182068772
  0.7512784613097911  0.7492948685320004  0.1247054216467604
  0.7483842498630797  0.7510340194646595  0.6252798913891733
  0.0000664818341400  0.0005044336615530  0.1250520717005323
  0.0000929334352567  0.9994687248856274  0.6248790691515673
  0.9992942692420648  0.5015586111178083  0.1246341183261253
  0.0013006338055661  0.4978911281681578  0.6252898775275338
  0.4914727418569503  0.0063485480534602  0.1231060312124825
  0.5016326180827557  0.9987415530538790  0.6252024576352706
  0.5002724614056746  0.5008344453205429  0.1249356623074375
  0.4994633564097362  0.4993317558919508  0.6250605957795391
  0.2490534229404675  0.2514700362630972  0.3746883804915057
  0.2555868287916271  0.2418868356729878  0.8768400984267736
  0.2497373059996834  0.7499955760163549  0.3750529233469573
  0.2503306085441306  0.7501231510731962  0.8748648405308378
  0.7496156933600518  0.2495412805420620  0.3748181461212294
  0.7504744324833813  0.2501486501043571  0.8750330728703459
  0.7483308001669234  0.7511416194109555  0.3746988963324965
  0.7512426734780475  0.7494087780844340  0.8752675308325922
  0.3574493177265711  0.1074958737951097  0.9999312754307091
 
  0.00000000E+00  0.00000000E+00  0.00000000E+00
  0.00000000E+00  0.00000000E+00  0.00000000E+00
  0.00000000E+00  0.00000000E+00  0.00000000E+00
  0.00000000E+00  0.00000000E+00  0.00000000E+00
  0.00000000E+00  0.00000000E+00  0.00000000E+00
  0.00000000E+00  0.00000000E+00  0.00000000E+00
  0.00000000E+00  0.00000000E+00  0.00000000E+00
  0.00000000E+00  0.00000000E+00  0.00000000E+00
  0.00000000E+00  0.00000000E+00  0.00000000E+00
  0.00000000E+00  0.00000000E+00  0.00000000E+00
  0.00000000E+00  0.00000000E+00  0.00000000E+00
  0.00000000E+00  0.00000000E+00  0.00000000E+00
  0.00000000E+00  0.00000000E+00  0.00000000E+00
  0.00000000E+00  0.00000000E+00  0.00000000E+00
  0.00000000E+00  0.00000000E+00  0.00000000E+00
  0.00000000E+00  0.00000000E+00  0.00000000E+00
  0.00000000E+00  0.00000000E+00  0.00000000E+00
  0.00000000E+00  0.00000000E+00  0.00000000E+00
  0.00000000E+00  0.00000000E+00  0.00000000E+00
  0.00000000E+00  0.00000000E+00  0.00000000E+00
  0.00000000E+00  0.00000000E+00  0.00000000E+00
  0.00000000E+00  0.00000000E+00  0.00000000E+00
  0.00000000E+00  0.00000000E+00  0.00000000E+00
  0.00000000E+00  0.00000000E+00  0.00000000E+00
  0.00000000E+00  0.00000000E+00  0.00000000E+00
  0.00000000E+00  0.00000000E+00  0.00000000E+00
  0.00000000E+00  0.00000000E+00  0.00000000E+00
  0.00000000E+00  0.00000000E+00  0.00000000E+00
  0.00000000E+00  0.00000000E+00  0.00000000E+00
  0.00000000E+00  0.00000000E+00  0.00000000E+00
  0.00000000E+00  0.00000000E+00  0.00000000E+00
  0.00000000E+00  0.00000000E+00  0.00000000E+00
  0.00000000E+00  0.00000000E+00  0.00000000E+00
  0.00000000E+00  0.00000000E+00  0.00000000E+00
  0.00000000E+00  0.00000000E+00  0.00000000E+00
  0.00000000E+00  0.00000000E+00  0.00000000E+00
  0.00000000E+00  0.00000000E+00  0.00000000E+00
  0.00000000E+00  0.00000000E+00  0.00000000E+00
  0.00000000E+00  0.00000000E+00  0.00000000E+00
  0.00000000E+00  0.00000000E+00  0.00000000E+00
  0.00000000E+00  0.00000000E+00  0.00000000E+00
  0.00000000E+00  0.00000000E+00  0.00000000E+00
  0.00000000E+00  0.00000000E+00  0.00000000E+00
  0.00000000E+00  0.00000000E+00  0.00000000E+00
  0.00000000E+00  0.00000000E+00  0.00000000E+00
  0.00000000E+00  0.00000000E+00  0.00000000E+00
  0.00000000E+00  0.00000000E+00  0.00000000E+00
  0.00000000E+00  0.00000000E+00  0.00000000E+00
  0.00000000E+00  0.00000000E+00  0.00000000E+00
  0.00000000E+00  0.00000000E+00  0.00000000E+00
  0.00000000E+00  0.00000000E+00  0.00000000E+00
  0.00000000E+00  0.00000000E+00  0.00000000E+00
  0.00000000E+00  0.00000000E+00  0.00000000E+00
  0.00000000E+00  0.00000000E+00  0.00000000E+00
  0.00000000E+00  0.00000000E+00  0.00000000E+00
  0.00000000E+00  0.00000000E+00  0.00000000E+00
  0.00000000E+00  0.00000000E+00  0.00000000E+00
  0.00000000E+00  0.00000000E+00  0.00000000E+00
  0.00000000E+00  0.00000000E+00  0.00000000E+00
  0.00000000E+00  0.00000000E+00  0.00000000E+00
  0.00000000E+00  0.00000000E+00  0.00000000E+00
  0.00000000E+00  0.00000000E+00  0.00000000E+00
  0.00000000E+00  0.00000000E+00  0.00000000E+00
  0.00000000E+00  0.00000000E+00  0.00000000E+00
  0.00000000E+00  0.00000000E+00  0.00000000E+00
  0.00000000E+00  0.00000000E+00  0.00000000E+00
  0.00000000E+00  0.00000000E+00  0.00000000E+00
  0.00000000E+00  0.00000000E+00  0.00000000E+00
  0.00000000E+00  0.00000000E+00  0.00000000E+00
  0.00000000E+00  0.00000000E+00  0.00000000E+00
  0.00000000E+00  0.00000000E+00  0.00000000E+00
  0.00000000E+00  0.00000000E+00  0.00000000E+00
  0.00000000E+00  0.00000000E+00  0.00000000E+00
  0.00000000E+00  0.00000000E+00  0.00000000E+00
  0.00000000E+00  0.00000000E+00  0.00000000E+00
  0.00000000E+00  0.00000000E+00  0.00000000E+00
  0.00000000E+00  0.00000000E+00  0.00000000E+00
  0.00000000E+00  0.00000000E+00  0.00000000E+00
  0.00000000E+00  0.00000000E+00  0.00000000E+00
  0.00000000E+00  0.00000000E+00  0.00000000E+00
  0.00000000E+00  0.00000000E+00  0.00000000E+00
  0.00000000E+00  0.00000000E+00  0.00000000E+00
  0.00000000E+00  0.00000000E+00  0.00000000E+00
  0.00000000E+00  0.00000000E+00  0.00000000E+00
  0.00000000E+00  0.00000000E+00  0.00000000E+00
  0.00000000E+00  0.00000000E+00  0.00000000E+00
  0.00000000E+00  0.00000000E+00  0.00000000E+00
  0.00000000E+00  0.00000000E+00  0.00000000E+00
  0.00000000E+00  0.00000000E+00  0.00000000E+00
  0.00000000E+00  0.00000000E+00  0.00000000E+00
  0.00000000E+00  0.00000000E+00  0.00000000E+00
  0.00000000E+00  0.00000000E+00  0.00000000E+00
  0.00000000E+00  0.00000000E+00  0.00000000E+00
  0.00000000E+00  0.00000000E+00  0.00000000E+00
  0.00000000E+00  0.00000000E+00  0.00000000E+00
  0.00000000E+00  0.00000000E+00  0.00000000E+00
  0.00000000E+00  0.00000000E+00  0.00000000E+00
  0.00000000E+00  0.00000000E+00  0.00000000E+00
  0.00000000E+00  0.00000000E+00  0.00000000E+00
  0.00000000E+00  0.00000000E+00  0.00000000E+00
  0.00000000E+00  0.00000000E+00  0.00000000E+00
  0.00000000E+00  0.00000000E+00  0.00000000E+00
  0.00000000E+00  0.00000000E+00  0.00000000E+00
  0.00000000E+00  0.00000000E+00  0.00000000E+00
  0.00000000E+00  0.00000000E+00  0.00000000E+00
  0.00000000E+00  0.00000000E+00  0.00000000E+00
  0.00000000E+00  0.00000000E+00  0.00000000E+00
  0.00000000E+00  0.00000000E+00  0.00000000E+00
  0.00000000E+00  0.00000000E+00  0.00000000E+00
  0.00000000E+00  0.00000000E+00  0.00000000E+00
  0.00000000E+00  0.00000000E+00  0.00000000E+00
  0.00000000E+00  0.00000000E+00  0.00000000E+00
  0.00000000E+00  0.00000000E+00  0.00000000E+00
  0.00000000E+00  0.00000000E+00  0.00000000E+00
  0.00000000E+00  0.00000000E+00  0.00000000E+00
  0.00000000E+00  0.00000000E+00  0.00000000E+00
  0.00000000E+00  0.00000000E+00  0.00000000E+00
  0.00000000E+00  0.00000000E+00  0.00000000E+00
  0.00000000E+00  0.00000000E+00  0.00000000E+00
  0.00000000E+00  0.00000000E+00  0.00000000E+00
  0.00000000E+00  0.00000000E+00  0.00000000E+00
  0.00000000E+00  0.00000000E+00  0.00000000E+00
  0.00000000E+00  0.00000000E+00  0.00000000E+00
  0.00000000E+00  0.00000000E+00  0.00000000E+00
  0.00000000E+00  0.00000000E+00  0.00000000E+00
  0.00000000E+00  0.00000000E+00  0.00000000E+00
  0.00000000E+00  0.00000000E+00  0.00000000E+00
  0.00000000E+00  0.00000000E+00  0.00000000E+00
  0.00000000E+00  0.00000000E+00  0.00000000E+00
  0.00000000E+00  0.00000000E+00  0.00000000E+00
  0.00000000E+00  0.00000000E+00  0.00000000E+00
  0.00000000E+00  0.00000000E+00  0.00000000E+00
  0.00000000E+00  0.00000000E+00  0.00000000E+00
  0.00000000E+00  0.00000000E+00  0.00000000E+00
  0.00000000E+00  0.00000000E+00  0.00000000E+00
  0.00000000E+00  0.00000000E+00  0.00000000E+00
  0.00000000E+00  0.00000000E+00  0.00000000E+00
  0.00000000E+00  0.00000000E+00  0.00000000E+00
  0.00000000E+00  0.00000000E+00  0.00000000E+00
  0.00000000E+00  0.00000000E+00  0.00000000E+00
  0.00000000E+00  0.00000000E+00  0.00000000E+00
  0.00000000E+00  0.00000000E+00  0.00000000E+00
  0.00000000E+00  0.00000000E+00  0.00000000E+00
  0.00000000E+00  0.00000000E+00  0.00000000E+00
  0.00000000E+00  0.00000000E+00  0.00000000E+00
  0.00000000E+00  0.00000000E+00  0.00000000E+00
  0.00000000E+00  0.00000000E+00  0.00000000E+00
  0.00000000E+00  0.00000000E+00  0.00000000E+00
  0.00000000E+00  0.00000000E+00  0.00000000E+00
  0.00000000E+00  0.00000000E+00  0.00000000E+00
  0.00000000E+00  0.00000000E+00  0.00000000E+00
  0.00000000E+00  0.00000000E+00  0.00000000E+00
  0.00000000E+00  0.00000000E+00  0.00000000E+00
  0.00000000E+00  0.00000000E+00  0.00000000E+00
  0.00000000E+00  0.00000000E+00  0.00000000E+00
  0.00000000E+00  0.00000000E+00  0.00000000E+00
  0.00000000E+00  0.00000000E+00  0.00000000E+00
  0.00000000E+00  0.00000000E+00  0.00000000E+00
  0.00000000E+00  0.00000000E+00  0.00000000E+00
  0.00000000E+00  0.00000000E+00  0.00000000E+00
