Ti72 O144                           
   1.00000000000000     
    13.8572986041468482    0.0000000000000000    0.0000000000000000
     0.0000000000000000   13.8572986041468482    0.0000000000000000
     0.0000000000000000    0.0000000000000000   12.0036836367354685
   Ti   O    O
    72   143     1
Direct
  0.1617171125301461  0.1616825583022516  0.9944400393605221
  0.1617664685137550  0.1617305112400492  0.2555522079715327
  0.1670226953717419  0.1669857135319346  0.5015807856003496
  0.1670489310324611  0.1670136830107102  0.7484160045494107
  0.1663236926329672  0.5004584984995148  0.0001840688879316
  0.1663234679065634  0.5004604370845162  0.2498276355725844
  0.1667753005911922  0.5000635895854443  0.4999493731181677
  0.1667599381815154  0.5000496936672830  0.7500606373511581
  0.1667074547309252  0.8333412711974647  0.0000489540844902
  0.1667078085199810  0.8333221104645393  0.2500847390661000
  0.1668406742219740  0.8333776209575240  0.5000651382312065
  0.1668198821169704  0.8333599625590254  0.7500706776664904
  0.5004775308393681  0.1663256086123243  0.0001725839480835
  0.5004762613582932  0.1663221935993123  0.2498186952293960
  0.5000764596509888  0.1667768601471238  0.4999371844816711
  0.5000644013157736  0.1667614649429169  0.7500536017257435
  0.5017570695205766  0.5017444568742474  0.9985414110508505
  0.5018061162866679  0.5017894080194525  0.2514429459736073
  0.4993604583611475  0.4993418699814756  0.5000509897538583
  0.4993726807742567  0.4993585968273955  0.7499624714648090
  0.5002709274927631  0.8333571705264986  0.0000023502174228
  0.5002627382571314  0.8333374988566568  0.2501728095341463
  0.5002101831415394  0.8333357505207529  0.5000925802477364
  0.5001893494825967  0.8333353933802201  0.7500922943750652
  0.8333449203151200  0.1666777205115666  0.0000495612916707
  0.8333326774896653  0.1666866111793917  0.2500848114031928
  0.8333873638645245  0.1668255103325680  0.5000577525645471
  0.8333711197012215  0.1668051571278383  0.7500577706698717
  0.8333987559086516  0.5002527506627494  0.0000016507658944
  0.8333807392282909  0.5002388304171885  0.2501799297379459
  0.8333753402643715  0.5001867020239210  0.5000910487004465
  0.8333659229208860  0.5001688295966861  0.7500926970015884
  0.8327265316059902  0.8327132817252866  0.0003025419640140
  0.8327570071307919  0.8327502443696685  0.2500373886353601
  0.8326101197724253  0.8326065679245012  0.5007428358787298
  0.8326590370057039  0.8326523793064562  0.7495957239884862
  0.9990568349388774  0.9990360843871268  0.1251331281984394
  0.9976594386814566  0.9976425384747916  0.3755275978749279
  0.9994486616650257  0.9994305652002309  0.6251249955807980
  0.9976466081584541  0.9976372520563098  0.8747113497350327
  0.9993501970363714  0.3338084910000939  0.1250373612587962
  0.0003589709912214  0.3334568928942497  0.3753479608207893
  0.0000856167632853  0.3333701736365287  0.6250352789466264
  0.0003493503856625  0.3334384484940345  0.8747260772375628
  0.9999330565100094  0.6669402073660597  0.1251313129440693
  0.0000523965680367  0.6668686338197093  0.3752448626987342
  0.0002911470993142  0.6666241598549830  0.6251150085928734
  0.0000507250705292  0.6668521455750948  0.8750006315611634
  0.3338485549164993  0.9993308860127184  0.1250311685998083
  0.3335020411910633  0.0003291046621513  0.3753384675736391
  0.3334085242905332  0.0000613414424156  0.6250258270055312
  0.3334792559492140  0.0003310944279585  0.8747172022182711
  0.3398630142365417  0.3398695575839358  0.1249350334449743
  0.3326287091584353  0.3326229147347536  0.3746880657901006
  0.3336807186858244  0.3336710132069660  0.6249216506937023
  0.3326057512868402  0.3325982696585600  0.8751910662633716
  0.3336614387450690  0.6669548297684261  0.1250337422580164
  0.3334888648613974  0.6667770285876051  0.3750155987477854
  0.3334622511878978  0.6667327582241549  0.6250438590822669
  0.3334652306396118  0.6667739010573382  0.8750610787605273
  0.6669414011277692  0.9999159615951485  0.1251207478580866
  0.6668636044863202  0.0000367946202255  0.3752428936230913
  0.6666166976525332  0.0002785813762932  0.6251128019876436
  0.6668517154279848  0.0000304490139829  0.8749953794525419
  0.6669842239244729  0.3336573745363987  0.1250301264729952
  0.6668037828876049  0.3334793139731645  0.3750096672957023
  0.6667528489677413  0.3334506897594189  0.6250401350165823
  0.6667955516244323  0.3334573724958309  0.8750612257324237
  0.6667500703061126  0.6667171723416910  0.1251407047095622
  0.6669823315901463  0.6669627426865301  0.3753474865590749
  0.6658887451451390  0.6658542656777442  0.6251556275687318
  0.6669920102552666  0.6669653880999687  0.8749215610957548
  0.2307886418077674  0.2307449071888673  0.3746723271916130
  0.2319016527977270  0.2318571649645501  0.6249586679174114
  0.2307686798213066  0.2307205579332351  0.8753457409409838
  0.2324203078864762  0.5648562002225034  0.1250231465987292
  0.2323063974521968  0.5646922098436351  0.3747067974321991
  0.2321947680189337  0.5647736222003101  0.6250233153025014
  0.2322927462045649  0.5646866452780052  0.8753013627640776
  0.2318276407853886  0.8987896889341247  0.1250707742812175
  0.2315261309421299  0.8994313551550833  0.3747793360537212
  0.2318244699042107  0.8987605975855529  0.6250647918229506
  0.2315168799280265  0.8994273152002619  0.8753046007365624
  0.5648882374250922  0.2324022399056325  0.1250183499179186
  0.5647226382830756  0.2322887752053339  0.3746985222234423
  0.5648018366458250  0.2321780010923718  0.6250176322153844
  0.5647155940635032  0.2322718961894105  0.8752931267042549
  0.5657564936689201  0.5657242865183625  0.1249979144602242
  0.5653042732076032  0.5652764210070199  0.3759783129948924
  0.5646452204192051  0.5646165982998885  0.6250126478418063
  0.5652939871309727  0.5652664151555925  0.8741098014482089
  0.5650517830814383  0.8987094617004798  0.1250972107847564
  0.5651411479758744  0.8986532661515582  0.3750812376524670
  0.5649210914306092  0.8988106027720806  0.6251018352124699
  0.5651342296526218  0.8986513278312270  0.8750952604486235
  0.8988135916604353  0.2317840006226123  0.1250673481918708
  0.8994592086936585  0.2314861677074760  0.3747865019182613
  0.8987845263176766  0.2317870223688208  0.6250639145643422
  0.8994540003727265  0.2314712740992465  0.8753020591799310
  0.8987610213422613  0.5650211097639176  0.1251031240414010
  0.8986965899054082  0.5651138830448718  0.3750867577655666
  0.8988499622787303  0.5648962597487067  0.6251069124591176
  0.8986955173515750  0.5651061506506740  0.8750982834131878
  0.8980384991351134  0.8980199351794695  0.1251267065673403
  0.8977256238081489  0.8977105260091923  0.3752502903631301
  0.8979560787447352  0.8979432323560673  0.6251180548459896
  0.8977241561799175  0.8977038512818484  0.8750849488764509
  0.2675682696545719  0.0670277591565047  0.0016517449980415
  0.2676152819033180  0.0670622053607091  0.2483956833922353
  0.2680104914496963  0.0653868134469866  0.5000878071157310
  0.2680358356968135  0.0654161526510362  0.7499414701439561
  0.2676526486828166  0.3974649108373481  0.0013412840283503
  0.2676306492899792  0.3974440165929730  0.2485507584359218
  0.2679674595034862  0.3978520240890767  0.4995834981390082
  0.2679229043692860  0.3978058285538630  0.7502968399184061
  0.2682706902454244  0.7319090757576319  0.0000478183637285
  0.2682743043581530  0.7319019408240924  0.2500397369444854
  0.2683458483359162  0.7319606904024495  0.4999115640892349
  0.2683214448998654  0.7319483374649726  0.7501663815097284
  0.6017385570159707  0.0652011607014551  0.0001203575437696
  0.6017276532416262  0.0651979899003949  0.2500618824770247
  0.6014504678571749  0.0653206865442216  0.4999290919619125
  0.6014429177141595  0.0653066714104989  0.7502535108699697
  0.6019222401193547  0.3991491906665803  0.0000610103589854
  0.6019672551378418  0.3991977774044604  0.2499887410873213
  0.6013426783143475  0.3984461948672309  0.5000263906287319
  0.6013635226384662  0.3984626856342864  0.7500341131466240
  0.6016165413000930  0.7318932496109241  0.9999851475458220
  0.6016020079423355  0.7318716440772578  0.2502628206027703
  0.6015303890130269  0.7318340239861889  0.5002180462147470
  0.6014933775048815  0.7318073819068578  0.7500398759472753
  0.9347548509936386  0.0647234294452317  0.9999282513353686
  0.9347212531510798  0.0646997395381798  0.2502953761354911
  0.9342162273634445  0.0644255099710631  0.5002171692558965
  0.9341833031902895  0.0643898371586092  0.7499881968091686
  0.9352757453882946  0.3980586160855180  0.9997128787624568
  0.9352712718002552  0.3980646613339373  0.2503767539349553
  0.9353063266434919  0.3983200898619471  0.4996452098754139
  0.9353056219632609  0.3983116268177722  0.7504418903887032
  0.9347398109639488  0.7318995509556523  0.0000733585547199
  0.9347750759972343  0.7319346170302742  0.2501837350973084
  0.9348546526986501  0.7318019231290893  0.5002473491715069
  0.9348868640576230  0.7318348346081683  0.7499956796687490
  0.0670670692813301  0.2675482977426938  0.0016543474587289
  0.0670983617305232  0.2675869463480310  0.2484022842931997
  0.0654271649048670  0.2679867884080287  0.5000950834285562
  0.0654557914149614  0.2680141140178198  0.7499471359436113
  0.0652315894833515  0.6017513993834079  0.0001262646208118
  0.0652285617642668  0.6017429531154138  0.2500712526820099
  0.0653448371458173  0.6014606056169626  0.4999354737171650
  0.0653383538808741  0.6014597573583088  0.7502574577856500
  0.0647518130048580  0.9347543193536396  0.9999284437651533
  0.0647243441694593  0.9347165343551856  0.2502956661104916
  0.0644469926932517  0.9342115726014668  0.5002174869334723
  0.0644099344953426  0.9341794429436469  0.7499885635743215
  0.3975047020417790  0.2676707144890894  0.0013372251452362
  0.3974755684181293  0.2676429804615769  0.2485523567700503
  0.3978800007959357  0.2679820134872163  0.4995791402781802
  0.3978352549990225  0.2679364806999764  0.7502959711074236
  0.3991710442290230  0.6019173484198492  0.0000631042178377
  0.3992198037291422  0.6019569214773879  0.2499904166205190
  0.3984684453591711  0.6013313909949385  0.5000275690239278
  0.3984826829874194  0.6013547546245565  0.7500366034192655
  0.3981078924693245  0.9352671163476761  0.9997060745031877
  0.3981178659796457  0.9352627592602716  0.2503660634025583
  0.3983617763699225  0.9352895897348756  0.4996385574572295
  0.3983551621179943  0.9352944633027883  0.7504361562217210
  0.7319404313271982  0.2682701065315254  0.0000436592995261
  0.7319370996992933  0.2682779635964294  0.2500366007579004
  0.7319901170482508  0.2683450967985216  0.4999115653873239
  0.7319788981495264  0.2683223269572958  0.7501654179940891
  0.7319412911339462  0.6016153459746234  0.9999858258605926
  0.7319162468725180  0.6015931175887431  0.2502630285966082
  0.7318751811163779  0.6015158978525658  0.5002191881897337
  0.7318475522963888  0.6014846458764017  0.7500445847545778
  0.7319193829362564  0.9347389550724245  0.0000656960025972
  0.7319517609168504  0.9347739533124308  0.2501809921880887
  0.7318145283658097  0.9348556527574146  0.5002438540822711
  0.7318496239251594  0.9348872155025866  0.7499905425830092
  0.1013329311206605  0.1013156348056222  0.1250480804967704
  0.1001322903570243  0.1001114965333698  0.3774032790782116
  0.1013129118387115  0.1012930144322528  0.6250296745085857
  0.1001131001818664  0.1000963572195304  0.8725654939652068
  0.1011288121569915  0.4352028267655902  0.1250111102750032
  0.1018696696646401  0.4345458557142545  0.3747307660673514
  0.1017095851432471  0.4347870749416067  0.6249956195463339
  0.1018581401773260  0.4345359379884380  0.8753144561138095
  0.1015303054503518  0.7683509451956161  0.1250686961114535
  0.1017606599873398  0.7682085794579666  0.3750888226825042
  0.1019727337700481  0.7679798016226311  0.6250552416468421
  0.1017433685109947  0.7682213028853714  0.8750770627601275
  0.4352040853503821  0.1011407556072520  0.1250017352609723
  0.4345510967249335  0.1018767904739129  0.3747234619766315
  0.4347884538197554  0.1017182046469208  0.6249867197649698
  0.4345371398579018  0.1018712347838143  0.8753096374855583
  0.4368947496560983  0.4369026085391896  0.1250146191273531
  0.4346251584355240  0.4346275184686381  0.3740681921501208
  0.4344560302903249  0.4344586221176308  0.6250028006624402
  0.4346089017096048  0.4346143990310519  0.8758648158213379
  0.4349022127212303  0.7685929087740035  0.1250741781615682
  0.4349838362851078  0.7683201059206008  0.3751014023061126
  0.4348512872212606  0.7683879166555337  0.6250724676178814
  0.4349638767565002  0.7683256848484181  0.8750672565514340
  0.7683413141226236  0.1015243663488717  0.1250689612434586
  0.7681976900765042  0.1017566845829276  0.3750858533016544
  0.7679701208742026  0.1019663613067574  0.6250536199752167
  0.7682092044837814  0.1017366781630308  0.8750704400851118
  0.7686105657224074  0.4349022171050047  0.1250763427898002
  0.7683392390213486  0.4349776444311833  0.3751045886772182
  0.7684053330663195  0.4348448437307154  0.6250773025030025
  0.7683402198004047  0.4349635686921215  0.8750711661661617
  0.7679895586516811  0.7679943733830159  0.1251707386066274
  0.7679283991667927  0.7679269240131549  0.3752049766027318
  0.7676798591867617  0.7676787302010821  0.6251658859961785
  0.7679267264937010  0.7679317083577858  0.8750415160048176
  0.2330165417173856  0.2329705889686291  0.1249409251223113
 
  0.00000000E+00  0.00000000E+00  0.00000000E+00
  0.00000000E+00  0.00000000E+00  0.00000000E+00
  0.00000000E+00  0.00000000E+00  0.00000000E+00
  0.00000000E+00  0.00000000E+00  0.00000000E+00
  0.00000000E+00  0.00000000E+00  0.00000000E+00
  0.00000000E+00  0.00000000E+00  0.00000000E+00
  0.00000000E+00  0.00000000E+00  0.00000000E+00
  0.00000000E+00  0.00000000E+00  0.00000000E+00
  0.00000000E+00  0.00000000E+00  0.00000000E+00
  0.00000000E+00  0.00000000E+00  0.00000000E+00
  0.00000000E+00  0.00000000E+00  0.00000000E+00
  0.00000000E+00  0.00000000E+00  0.00000000E+00
  0.00000000E+00  0.00000000E+00  0.00000000E+00
  0.00000000E+00  0.00000000E+00  0.00000000E+00
  0.00000000E+00  0.00000000E+00  0.00000000E+00
  0.00000000E+00  0.00000000E+00  0.00000000E+00
  0.00000000E+00  0.00000000E+00  0.00000000E+00
  0.00000000E+00  0.00000000E+00  0.00000000E+00
  0.00000000E+00  0.00000000E+00  0.00000000E+00
  0.00000000E+00  0.00000000E+00  0.00000000E+00
  0.00000000E+00  0.00000000E+00  0.00000000E+00
  0.00000000E+00  0.00000000E+00  0.00000000E+00
  0.00000000E+00  0.00000000E+00  0.00000000E+00
  0.00000000E+00  0.00000000E+00  0.00000000E+00
  0.00000000E+00  0.00000000E+00  0.00000000E+00
  0.00000000E+00  0.00000000E+00  0.00000000E+00
  0.00000000E+00  0.00000000E+00  0.00000000E+00
  0.00000000E+00  0.00000000E+00  0.00000000E+00
  0.00000000E+00  0.00000000E+00  0.00000000E+00
  0.00000000E+00  0.00000000E+00  0.00000000E+00
  0.00000000E+00  0.00000000E+00  0.00000000E+00
  0.00000000E+00  0.00000000E+00  0.00000000E+00
  0.00000000E+00  0.00000000E+00  0.00000000E+00
  0.00000000E+00  0.00000000E+00  0.00000000E+00
  0.00000000E+00  0.00000000E+00  0.00000000E+00
  0.00000000E+00  0.00000000E+00  0.00000000E+00
  0.00000000E+00  0.00000000E+00  0.00000000E+00
  0.00000000E+00  0.00000000E+00  0.00000000E+00
  0.00000000E+00  0.00000000E+00  0.00000000E+00
  0.00000000E+00  0.00000000E+00  0.00000000E+00
  0.00000000E+00  0.00000000E+00  0.00000000E+00
  0.00000000E+00  0.00000000E+00  0.00000000E+00
  0.00000000E+00  0.00000000E+00  0.00000000E+00
  0.00000000E+00  0.00000000E+00  0.00000000E+00
  0.00000000E+00  0.00000000E+00  0.00000000E+00
  0.00000000E+00  0.00000000E+00  0.00000000E+00
  0.00000000E+00  0.00000000E+00  0.00000000E+00
  0.00000000E+00  0.00000000E+00  0.00000000E+00
  0.00000000E+00  0.00000000E+00  0.00000000E+00
  0.00000000E+00  0.00000000E+00  0.00000000E+00
  0.00000000E+00  0.00000000E+00  0.00000000E+00
  0.00000000E+00  0.00000000E+00  0.00000000E+00
  0.00000000E+00  0.00000000E+00  0.00000000E+00
  0.00000000E+00  0.00000000E+00  0.00000000E+00
  0.00000000E+00  0.00000000E+00  0.00000000E+00
  0.00000000E+00  0.00000000E+00  0.00000000E+00
  0.00000000E+00  0.00000000E+00  0.00000000E+00
  0.00000000E+00  0.00000000E+00  0.00000000E+00
  0.00000000E+00  0.00000000E+00  0.00000000E+00
  0.00000000E+00  0.00000000E+00  0.00000000E+00
  0.00000000E+00  0.00000000E+00  0.00000000E+00
  0.00000000E+00  0.00000000E+00  0.00000000E+00
  0.00000000E+00  0.00000000E+00  0.00000000E+00
  0.00000000E+00  0.00000000E+00  0.00000000E+00
  0.00000000E+00  0.00000000E+00  0.00000000E+00
  0.00000000E+00  0.00000000E+00  0.00000000E+00
  0.00000000E+00  0.00000000E+00  0.00000000E+00
  0.00000000E+00  0.00000000E+00  0.00000000E+00
  0.00000000E+00  0.00000000E+00  0.00000000E+00
  0.00000000E+00  0.00000000E+00  0.00000000E+00
  0.00000000E+00  0.00000000E+00  0.00000000E+00
  0.00000000E+00  0.00000000E+00  0.00000000E+00
  0.00000000E+00  0.00000000E+00  0.00000000E+00
  0.00000000E+00  0.00000000E+00  0.00000000E+00
  0.00000000E+00  0.00000000E+00  0.00000000E+00
  0.00000000E+00  0.00000000E+00  0.00000000E+00
  0.00000000E+00  0.00000000E+00  0.00000000E+00
  0.00000000E+00  0.00000000E+00  0.00000000E+00
  0.00000000E+00  0.00000000E+00  0.00000000E+00
  0.00000000E+00  0.00000000E+00  0.00000000E+00
  0.00000000E+00  0.00000000E+00  0.00000000E+00
  0.00000000E+00  0.00000000E+00  0.00000000E+00
  0.00000000E+00  0.00000000E+00  0.00000000E+00
  0.00000000E+00  0.00000000E+00  0.00000000E+00
  0.00000000E+00  0.00000000E+00  0.00000000E+00
  0.00000000E+00  0.00000000E+00  0.00000000E+00
  0.00000000E+00  0.00000000E+00  0.00000000E+00
  0.00000000E+00  0.00000000E+00  0.00000000E+00
  0.00000000E+00  0.00000000E+00  0.00000000E+00
  0.00000000E+00  0.00000000E+00  0.00000000E+00
  0.00000000E+00  0.00000000E+00  0.00000000E+00
  0.00000000E+00  0.00000000E+00  0.00000000E+00
  0.00000000E+00  0.00000000E+00  0.00000000E+00
  0.00000000E+00  0.00000000E+00  0.00000000E+00
  0.00000000E+00  0.00000000E+00  0.00000000E+00
  0.00000000E+00  0.00000000E+00  0.00000000E+00
  0.00000000E+00  0.00000000E+00  0.00000000E+00
  0.00000000E+00  0.00000000E+00  0.00000000E+00
  0.00000000E+00  0.00000000E+00  0.00000000E+00
  0.00000000E+00  0.00000000E+00  0.00000000E+00
  0.00000000E+00  0.00000000E+00  0.00000000E+00
  0.00000000E+00  0.00000000E+00  0.00000000E+00
  0.00000000E+00  0.00000000E+00  0.00000000E+00
  0.00000000E+00  0.00000000E+00  0.00000000E+00
  0.00000000E+00  0.00000000E+00  0.00000000E+00
  0.00000000E+00  0.00000000E+00  0.00000000E+00
  0.00000000E+00  0.00000000E+00  0.00000000E+00
  0.00000000E+00  0.00000000E+00  0.00000000E+00
  0.00000000E+00  0.00000000E+00  0.00000000E+00
  0.00000000E+00  0.00000000E+00  0.00000000E+00
  0.00000000E+00  0.00000000E+00  0.00000000E+00
  0.00000000E+00  0.00000000E+00  0.00000000E+00
  0.00000000E+00  0.00000000E+00  0.00000000E+00
  0.00000000E+00  0.00000000E+00  0.00000000E+00
  0.00000000E+00  0.00000000E+00  0.00000000E+00
  0.00000000E+00  0.00000000E+00  0.00000000E+00
  0.00000000E+00  0.00000000E+00  0.00000000E+00
  0.00000000E+00  0.00000000E+00  0.00000000E+00
  0.00000000E+00  0.00000000E+00  0.00000000E+00
  0.00000000E+00  0.00000000E+00  0.00000000E+00
  0.00000000E+00  0.00000000E+00  0.00000000E+00
  0.00000000E+00  0.00000000E+00  0.00000000E+00
  0.00000000E+00  0.00000000E+00  0.00000000E+00
  0.00000000E+00  0.00000000E+00  0.00000000E+00
  0.00000000E+00  0.00000000E+00  0.00000000E+00
  0.00000000E+00  0.00000000E+00  0.00000000E+00
  0.00000000E+00  0.00000000E+00  0.00000000E+00
  0.00000000E+00  0.00000000E+00  0.00000000E+00
  0.00000000E+00  0.00000000E+00  0.00000000E+00
  0.00000000E+00  0.00000000E+00  0.00000000E+00
  0.00000000E+00  0.00000000E+00  0.00000000E+00
  0.00000000E+00  0.00000000E+00  0.00000000E+00
  0.00000000E+00  0.00000000E+00  0.00000000E+00
  0.00000000E+00  0.00000000E+00  0.00000000E+00
  0.00000000E+00  0.00000000E+00  0.00000000E+00
  0.00000000E+00  0.00000000E+00  0.00000000E+00
  0.00000000E+00  0.00000000E+00  0.00000000E+00
  0.00000000E+00  0.00000000E+00  0.00000000E+00
  0.00000000E+00  0.00000000E+00  0.00000000E+00
  0.00000000E+00  0.00000000E+00  0.00000000E+00
  0.00000000E+00  0.00000000E+00  0.00000000E+00
  0.00000000E+00  0.00000000E+00  0.00000000E+00
  0.00000000E+00  0.00000000E+00  0.00000000E+00
  0.00000000E+00  0.00000000E+00  0.00000000E+00
  0.00000000E+00  0.00000000E+00  0.00000000E+00
  0.00000000E+00  0.00000000E+00  0.00000000E+00
  0.00000000E+00  0.00000000E+00  0.00000000E+00
  0.00000000E+00  0.00000000E+00  0.00000000E+00
  0.00000000E+00  0.00000000E+00  0.00000000E+00
  0.00000000E+00  0.00000000E+00  0.00000000E+00
  0.00000000E+00  0.00000000E+00  0.00000000E+00
  0.00000000E+00  0.00000000E+00  0.00000000E+00
  0.00000000E+00  0.00000000E+00  0.00000000E+00
  0.00000000E+00  0.00000000E+00  0.00000000E+00
  0.00000000E+00  0.00000000E+00  0.00000000E+00
  0.00000000E+00  0.00000000E+00  0.00000000E+00
  0.00000000E+00  0.00000000E+00  0.00000000E+00
  0.00000000E+00  0.00000000E+00  0.00000000E+00
  0.00000000E+00  0.00000000E+00  0.00000000E+00
  0.00000000E+00  0.00000000E+00  0.00000000E+00
  0.00000000E+00  0.00000000E+00  0.00000000E+00
  0.00000000E+00  0.00000000E+00  0.00000000E+00
  0.00000000E+00  0.00000000E+00  0.00000000E+00
  0.00000000E+00  0.00000000E+00  0.00000000E+00
  0.00000000E+00  0.00000000E+00  0.00000000E+00
  0.00000000E+00  0.00000000E+00  0.00000000E+00
  0.00000000E+00  0.00000000E+00  0.00000000E+00
  0.00000000E+00  0.00000000E+00  0.00000000E+00
  0.00000000E+00  0.00000000E+00  0.00000000E+00
  0.00000000E+00  0.00000000E+00  0.00000000E+00
  0.00000000E+00  0.00000000E+00  0.00000000E+00
  0.00000000E+00  0.00000000E+00  0.00000000E+00
  0.00000000E+00  0.00000000E+00  0.00000000E+00
  0.00000000E+00  0.00000000E+00  0.00000000E+00
  0.00000000E+00  0.00000000E+00  0.00000000E+00
  0.00000000E+00  0.00000000E+00  0.00000000E+00
  0.00000000E+00  0.00000000E+00  0.00000000E+00
  0.00000000E+00  0.00000000E+00  0.00000000E+00
  0.00000000E+00  0.00000000E+00  0.00000000E+00
  0.00000000E+00  0.00000000E+00  0.00000000E+00
  0.00000000E+00  0.00000000E+00  0.00000000E+00
  0.00000000E+00  0.00000000E+00  0.00000000E+00
  0.00000000E+00  0.00000000E+00  0.00000000E+00
  0.00000000E+00  0.00000000E+00  0.00000000E+00
  0.00000000E+00  0.00000000E+00  0.00000000E+00
  0.00000000E+00  0.00000000E+00  0.00000000E+00
  0.00000000E+00  0.00000000E+00  0.00000000E+00
  0.00000000E+00  0.00000000E+00  0.00000000E+00
  0.00000000E+00  0.00000000E+00  0.00000000E+00
  0.00000000E+00  0.00000000E+00  0.00000000E+00
  0.00000000E+00  0.00000000E+00  0.00000000E+00
  0.00000000E+00  0.00000000E+00  0.00000000E+00
  0.00000000E+00  0.00000000E+00  0.00000000E+00
  0.00000000E+00  0.00000000E+00  0.00000000E+00
  0.00000000E+00  0.00000000E+00  0.00000000E+00
  0.00000000E+00  0.00000000E+00  0.00000000E+00
  0.00000000E+00  0.00000000E+00  0.00000000E+00
  0.00000000E+00  0.00000000E+00  0.00000000E+00
  0.00000000E+00  0.00000000E+00  0.00000000E+00
  0.00000000E+00  0.00000000E+00  0.00000000E+00
  0.00000000E+00  0.00000000E+00  0.00000000E+00
  0.00000000E+00  0.00000000E+00  0.00000000E+00
  0.00000000E+00  0.00000000E+00  0.00000000E+00
  0.00000000E+00  0.00000000E+00  0.00000000E+00
  0.00000000E+00  0.00000000E+00  0.00000000E+00
  0.00000000E+00  0.00000000E+00  0.00000000E+00
  0.00000000E+00  0.00000000E+00  0.00000000E+00
  0.00000000E+00  0.00000000E+00  0.00000000E+00
  0.00000000E+00  0.00000000E+00  0.00000000E+00
  0.00000000E+00  0.00000000E+00  0.00000000E+00
  0.00000000E+00  0.00000000E+00  0.00000000E+00
  0.00000000E+00  0.00000000E+00  0.00000000E+00
  0.00000000E+00  0.00000000E+00  0.00000000E+00
  0.00000000E+00  0.00000000E+00  0.00000000E+00
  0.00000000E+00  0.00000000E+00  0.00000000E+00
  0.00000000E+00  0.00000000E+00  0.00000000E+00
