Ca32 Ho1 Ti32 O96                       
   1.00000000000000     
    10.9705905016578065    0.0000000000000000    0.0000000000000000
     0.0000000000000000   15.2696278713035447    0.0000000000000000
     0.0000000000000000    0.0000000000000000   10.7054226450466157
   Ca   Ti   O    O
    32    32    95     1
Direct
  0.2693300864606469  0.3740721347783674  0.0013203632291110
  0.2747465131532685  0.3744406274691826  0.5065910447075503
  0.2743842075995501  0.8750183782543014  0.0056550464203369
  0.2738936243374601  0.8755094209229274  0.5056107587230021
  0.7756052146175751  0.3741729046316443  0.0055526813651039
  0.7741108129220806  0.3743285303265028  0.5047213311495986
  0.7743535638955901  0.8752487865762439  0.0055513255617676
  0.7745720365822895  0.8751183523349809  0.5057544894794098
  0.2257381976536928  0.1248891194241978  0.4943353821015624
  0.2257696694343242  0.1245155885454537  0.9939225540958495
  0.2253905728138023  0.6263180788340681  0.4970162452923454
  0.2252549925706438  0.6251696140115669  0.9926619803751647
  0.7262741194393910  0.1246345558635932  0.4948913531899370
  0.7254867648173490  0.1248214137745861  0.9939105109110801
  0.7256917265526377  0.6254657892981793  0.4944179824710800
  0.7279229772620481  0.6264482206713348  0.9951166767926696
  0.0219514392300730  0.3732520196299554  0.2435402734038483
  0.0249829873812920  0.3740616763504582  0.7446038936376674
  0.0244842438590913  0.8753111279484408  0.2439293648432034
  0.0241014490063122  0.8754469152272943  0.7445454291200745
  0.5303786875781602  0.3724488851276214  0.2476444333662347
  0.5243121406575586  0.3739291598925499  0.7428347290131798
  0.5245765698445248  0.8754707993696790  0.2443842403924048
  0.5242090313055799  0.8753920137260005  0.7446408101559897
  0.4763177582895046  0.1244034915065583  0.2565096807700963
  0.4762059456434012  0.1249588050946658  0.7554820456285493
  0.4783128886084821  0.6280103755679336  0.2597670582629705
  0.4748929038470475  0.6269550673940731  0.7526390206362810
  0.9761088263137109  0.1246260693506209  0.2555705814768496
  0.9754901710822943  0.1246773278856014  0.7552066064405337
  0.9726187757641280  0.6265916276592978  0.2552341599019491
  0.9763397899235814  0.6255104107295425  0.7566566757856948
  0.2503365071670563  0.2498515227574883  0.2495124095452822
  0.2501185223808651  0.2494141212787899  0.7493902100143900
  0.2508489316873416  0.7501016643299357  0.2500650276299952
  0.2497501169037995  0.7505160575698496  0.7504153579568302
  0.7508875983006166  0.2491312791735150  0.2494696363441672
  0.7498926816801089  0.2501790379843667  0.7498907661534284
  0.7500732244886315  0.7506540033211067  0.2501748094717703
  0.7503909724374077  0.7500074074173796  0.7500222171021756
  0.2503382064200487  0.0001391088865004  0.2497562833474090
  0.2501324341898362  0.9999949180418966  0.7499781828171613
  0.2409318872070738  0.5011606953008286  0.2564627281562286
  0.2501322387687183  0.5001759091253907  0.7493646088390935
  0.7503153694758333  0.9999894656666182  0.2499326244576544
  0.7499233271427255  0.9998968851071998  0.7501467848782504
  0.7498127258977200  0.4999876198394351  0.2495944717098493
  0.7518236180735046  0.4998100542228882  0.7483906156335449
  0.0001543043530121  0.2494353474736474  0.9994105210672164
  0.0001298366766452  0.2500600688993724  0.4998822409369351
  0.0003185730170381  0.7501328102067868  0.0001112759212700
  0.0001492066300998  0.7500325009809219  0.4999369215556460
  0.4993862128625486  0.2498671031352502  0.0007283552353389
  0.4999396024659353  0.2495730075076338  0.4999326670133801
  0.4999934236192400  0.7496722983997245  0.0000809807347208
  0.5000987086075371  0.7507424486051940  0.5005011673654769
  0.0001196635817659  0.0000074104292015  0.9999023019299438
  0.0001750839349806  0.9999695974169637  0.4998292958841581
  0.9997844465515110  0.4999997968637920  0.0002306527733710
  0.9982868937522260  0.5001396725963059  0.5017090297963052
  0.4999737196878974  0.9999198351438284  0.0001070603860129
  0.5001185688254497  0.9999227497399722  0.5001023751030387
  0.5058328474874336  0.5007068976837707  0.9910917205050952
  0.4997253193340838  0.4997774688443620  0.4997703200707886
  0.2376167381973015  0.3762670003459678  0.2935999950379271
  0.2367506258725912  0.3750002378419545  0.7919882465103063
  0.2370647749327665  0.8743496503465283  0.2937258011064925
  0.2368050495758642  0.8750070614215386  0.7942234632161780
  0.7380748607793661  0.3747226276338434  0.2934381335861059
  0.7357518573883415  0.3754917142570223  0.7944455976846059
  0.7371362557406125  0.8751106004892529  0.2939595965445240
  0.7363923621471653  0.8748355191775637  0.7944618288875414
  0.2645483478893128  0.1254350069550332  0.2051385053916887
  0.2638407960508186  0.1249299129004548  0.7058054385102751
  0.2686627774515067  0.6219325363029048  0.2025855513760522
  0.2630464464771819  0.6251973251909722  0.7067842040055297
  0.7632408433670286  0.1248834505950826  0.2053445428225956
  0.7624790542963268  0.1251869575021662  0.7065392379342222
  0.7616317550148067  0.6249578914109820  0.2065812214853412
  0.7645323827803638  0.6248957018333252  0.7052408506907172
  0.4871629843795373  0.3748736419125310  0.4559446717443357
  0.4844618727923078  0.3764956331817580  0.9575340408649334
  0.4866518421885101  0.8750306187563898  0.4556362620187484
  0.4875305135401165  0.8745474026267562  0.9561900711004028
  0.9876854527770436  0.3754526889308712  0.4554352757031405
  0.9885092739637310  0.3748664558138539  0.9559516892509234
  0.9880893819863387  0.8748041995073395  0.4552209960408432
  0.9878796223753736  0.8748769317445640  0.9562979603507531
  0.0130408448932359  0.1249076958598334  0.0441502924163199
  0.0127279724225089  0.1251319937726319  0.5437121642327828
  0.0121474437935622  0.6249172476174236  0.0441661558609398
  0.0117579715644759  0.6249764384525545  0.5452202681416626
  0.5118163336507424  0.1255305393678957  0.0447596690376190
  0.5130816437382676  0.1250071742255925  0.5437952361696013
  0.5117862202488864  0.6229600656387603  0.0466003613765050
  0.5126840563723630  0.6249727268580654  0.5420735748105147
  0.3974029513829250  0.4769097711740517  0.6477941204007752
  0.3970182413700576  0.9765516110380366  0.1476879863866771
  0.3969404708479304  0.9766721639025747  0.6475716817904997
  0.8962463312995592  0.4767365109974585  0.1475685265247115
  0.8975685977568889  0.4757134787379275  0.6483532009574742
  0.8971101431759700  0.9767180914575503  0.1476078460391451
  0.8967787349661467  0.9768938763707461  0.6474051989515092
  0.1032054022108094  0.2275754980445484  0.3515490828212172
  0.1030344241908758  0.2268340505412659  0.8517814856839644
  0.1045371695069694  0.7250854427829253  0.3520559681391573
  0.1033712547120476  0.7267870131547143  0.8525619403092871
  0.6027032361026206  0.2278397328288582  0.3513585819522249
  0.6019910767506370  0.2280912528100972  0.8525575810269440
  0.6039493330000963  0.7279282815644630  0.3532937194523594
  0.6036867877041453  0.7254347063032528  0.8534979713827042
  0.1036929453458602  0.0233263765405722  0.3521135614191107
  0.1031388987391939  0.0233018552149305  0.8521835785215169
  0.0996638749428366  0.5258172127391564  0.3526392990503299
  0.1038580611311763  0.5230112798605179  0.8530199984801000
  0.6034125574323262  0.0231135497782220  0.3524868349874209
  0.6030003827891266  0.0234715464472440  0.8527065578577352
  0.6014252821100732  0.5217989491085314  0.3504616763481493
  0.6032103877930454  0.5249477564931724  0.8487887975051824
  0.3967955534996002  0.2765084705527546  0.1480198991569367
  0.3969974846685009  0.2729969786319261  0.6474402262411874
  0.3978212659272695  0.7726783681183718  0.1484006159840191
  0.3972850723311447  0.7728075507421976  0.6481356955968443
  0.8967905732898230  0.2727883701262730  0.1469207806296146
  0.8966037034076966  0.2734866676587020  0.6473415984680880
  0.8973084186799410  0.7727868473075838  0.1479683714595072
  0.8969767728049421  0.7737697964176401  0.6473444893923516
  0.1456290848855232  0.4763508844445605  0.1040559584979983
  0.1470736927214763  0.4776044481145950  0.6013308393310430
  0.1472568222856102  0.9769090911168485  0.1023639772818363
  0.1469129978593048  0.9769921897401059  0.6023572017308665
  0.6461528349215124  0.4759261710862617  0.1008620027988826
  0.6475033154843439  0.4770564682800131  0.6013975629544772
  0.6468685657928573  0.9770250887413502  0.1022903964277451
  0.6468777738065850  0.9767646586994804  0.6024388905432776
  0.3529219873646838  0.2270103831611099  0.3974453872884118
  0.3523603859333576  0.2276609672580688  0.8982791255006651
  0.3535780662330765  0.7262689199715247  0.3972081525471582
  0.3534751747112266  0.7268659346151602  0.8979032237110869
  0.8531964962534543  0.2268254630543312  0.3974105090177429
  0.8527596377386855  0.2271842721410907  0.8976360098887136
  0.8536834226191851  0.7267758748734269  0.3973184607199039
  0.8537426522618627  0.7270767450194698  0.8974558129995964
  0.3531719212104772  0.0231224216214005  0.3974892361415170
  0.3532731308277696  0.0229015832025343  0.8977150784948522
  0.3508834052442225  0.5228011191148861  0.3983163151722893
  0.3539086929008481  0.5233562843280342  0.8975520414831951
  0.8533999489169816  0.0231257505251975  0.3974644310931158
  0.8531181754667465  0.0229064953902612  0.8976917578737111
  0.8517938422197702  0.5229246083719025  0.3983705783187529
  0.8527320884228750  0.5230083932406915  0.8975299135221131
  0.1468339783443054  0.2729521858567222  0.1022769956935272
  0.1469740526235265  0.2727772162647870  0.6019094630217050
  0.1480422340216714  0.7718676352512885  0.1024395626141276
  0.1474308928656421  0.7727570481246026  0.6019886485726504
  0.6465311422988255  0.2734450019816861  0.1023841612919386
  0.6467198065332760  0.2732071003123718  0.6022430277345365
  0.6471636965512826  0.7724463695893958  0.1021511205879755
  0.6467328153341866  0.7730251492649092  0.6029537635239803
  0.3938234144704041  0.4791131985968222  0.1460148132565738
 
  0.00000000E+00  0.00000000E+00  0.00000000E+00
  0.00000000E+00  0.00000000E+00  0.00000000E+00
  0.00000000E+00  0.00000000E+00  0.00000000E+00
  0.00000000E+00  0.00000000E+00  0.00000000E+00
  0.00000000E+00  0.00000000E+00  0.00000000E+00
  0.00000000E+00  0.00000000E+00  0.00000000E+00
  0.00000000E+00  0.00000000E+00  0.00000000E+00
  0.00000000E+00  0.00000000E+00  0.00000000E+00
  0.00000000E+00  0.00000000E+00  0.00000000E+00
  0.00000000E+00  0.00000000E+00  0.00000000E+00
  0.00000000E+00  0.00000000E+00  0.00000000E+00
  0.00000000E+00  0.00000000E+00  0.00000000E+00
  0.00000000E+00  0.00000000E+00  0.00000000E+00
  0.00000000E+00  0.00000000E+00  0.00000000E+00
  0.00000000E+00  0.00000000E+00  0.00000000E+00
  0.00000000E+00  0.00000000E+00  0.00000000E+00
  0.00000000E+00  0.00000000E+00  0.00000000E+00
  0.00000000E+00  0.00000000E+00  0.00000000E+00
  0.00000000E+00  0.00000000E+00  0.00000000E+00
  0.00000000E+00  0.00000000E+00  0.00000000E+00
  0.00000000E+00  0.00000000E+00  0.00000000E+00
  0.00000000E+00  0.00000000E+00  0.00000000E+00
  0.00000000E+00  0.00000000E+00  0.00000000E+00
  0.00000000E+00  0.00000000E+00  0.00000000E+00
  0.00000000E+00  0.00000000E+00  0.00000000E+00
  0.00000000E+00  0.00000000E+00  0.00000000E+00
  0.00000000E+00  0.00000000E+00  0.00000000E+00
  0.00000000E+00  0.00000000E+00  0.00000000E+00
  0.00000000E+00  0.00000000E+00  0.00000000E+00
  0.00000000E+00  0.00000000E+00  0.00000000E+00
  0.00000000E+00  0.00000000E+00  0.00000000E+00
  0.00000000E+00  0.00000000E+00  0.00000000E+00
  0.00000000E+00  0.00000000E+00  0.00000000E+00
  0.00000000E+00  0.00000000E+00  0.00000000E+00
  0.00000000E+00  0.00000000E+00  0.00000000E+00
  0.00000000E+00  0.00000000E+00  0.00000000E+00
  0.00000000E+00  0.00000000E+00  0.00000000E+00
  0.00000000E+00  0.00000000E+00  0.00000000E+00
  0.00000000E+00  0.00000000E+00  0.00000000E+00
  0.00000000E+00  0.00000000E+00  0.00000000E+00
  0.00000000E+00  0.00000000E+00  0.00000000E+00
  0.00000000E+00  0.00000000E+00  0.00000000E+00
  0.00000000E+00  0.00000000E+00  0.00000000E+00
  0.00000000E+00  0.00000000E+00  0.00000000E+00
  0.00000000E+00  0.00000000E+00  0.00000000E+00
  0.00000000E+00  0.00000000E+00  0.00000000E+00
  0.00000000E+00  0.00000000E+00  0.00000000E+00
  0.00000000E+00  0.00000000E+00  0.00000000E+00
  0.00000000E+00  0.00000000E+00  0.00000000E+00
  0.00000000E+00  0.00000000E+00  0.00000000E+00
  0.00000000E+00  0.00000000E+00  0.00000000E+00
  0.00000000E+00  0.00000000E+00  0.00000000E+00
  0.00000000E+00  0.00000000E+00  0.00000000E+00
  0.00000000E+00  0.00000000E+00  0.00000000E+00
  0.00000000E+00  0.00000000E+00  0.00000000E+00
  0.00000000E+00  0.00000000E+00  0.00000000E+00
  0.00000000E+00  0.00000000E+00  0.00000000E+00
  0.00000000E+00  0.00000000E+00  0.00000000E+00
  0.00000000E+00  0.00000000E+00  0.00000000E+00
  0.00000000E+00  0.00000000E+00  0.00000000E+00
  0.00000000E+00  0.00000000E+00  0.00000000E+00
  0.00000000E+00  0.00000000E+00  0.00000000E+00
  0.00000000E+00  0.00000000E+00  0.00000000E+00
  0.00000000E+00  0.00000000E+00  0.00000000E+00
  0.00000000E+00  0.00000000E+00  0.00000000E+00
  0.00000000E+00  0.00000000E+00  0.00000000E+00
  0.00000000E+00  0.00000000E+00  0.00000000E+00
  0.00000000E+00  0.00000000E+00  0.00000000E+00
  0.00000000E+00  0.00000000E+00  0.00000000E+00
  0.00000000E+00  0.00000000E+00  0.00000000E+00
  0.00000000E+00  0.00000000E+00  0.00000000E+00
  0.00000000E+00  0.00000000E+00  0.00000000E+00
  0.00000000E+00  0.00000000E+00  0.00000000E+00
  0.00000000E+00  0.00000000E+00  0.00000000E+00
  0.00000000E+00  0.00000000E+00  0.00000000E+00
  0.00000000E+00  0.00000000E+00  0.00000000E+00
  0.00000000E+00  0.00000000E+00  0.00000000E+00
  0.00000000E+00  0.00000000E+00  0.00000000E+00
  0.00000000E+00  0.00000000E+00  0.00000000E+00
  0.00000000E+00  0.00000000E+00  0.00000000E+00
  0.00000000E+00  0.00000000E+00  0.00000000E+00
  0.00000000E+00  0.00000000E+00  0.00000000E+00
  0.00000000E+00  0.00000000E+00  0.00000000E+00
  0.00000000E+00  0.00000000E+00  0.00000000E+00
  0.00000000E+00  0.00000000E+00  0.00000000E+00
  0.00000000E+00  0.00000000E+00  0.00000000E+00
  0.00000000E+00  0.00000000E+00  0.00000000E+00
  0.00000000E+00  0.00000000E+00  0.00000000E+00
  0.00000000E+00  0.00000000E+00  0.00000000E+00
  0.00000000E+00  0.00000000E+00  0.00000000E+00
  0.00000000E+00  0.00000000E+00  0.00000000E+00
  0.00000000E+00  0.00000000E+00  0.00000000E+00
  0.00000000E+00  0.00000000E+00  0.00000000E+00
  0.00000000E+00  0.00000000E+00  0.00000000E+00
  0.00000000E+00  0.00000000E+00  0.00000000E+00
  0.00000000E+00  0.00000000E+00  0.00000000E+00
  0.00000000E+00  0.00000000E+00  0.00000000E+00
  0.00000000E+00  0.00000000E+00  0.00000000E+00
  0.00000000E+00  0.00000000E+00  0.00000000E+00
  0.00000000E+00  0.00000000E+00  0.00000000E+00
  0.00000000E+00  0.00000000E+00  0.00000000E+00
  0.00000000E+00  0.00000000E+00  0.00000000E+00
  0.00000000E+00  0.00000000E+00  0.00000000E+00
  0.00000000E+00  0.00000000E+00  0.00000000E+00
  0.00000000E+00  0.00000000E+00  0.00000000E+00
  0.00000000E+00  0.00000000E+00  0.00000000E+00
  0.00000000E+00  0.00000000E+00  0.00000000E+00
  0.00000000E+00  0.00000000E+00  0.00000000E+00
  0.00000000E+00  0.00000000E+00  0.00000000E+00
  0.00000000E+00  0.00000000E+00  0.00000000E+00
  0.00000000E+00  0.00000000E+00  0.00000000E+00
  0.00000000E+00  0.00000000E+00  0.00000000E+00
  0.00000000E+00  0.00000000E+00  0.00000000E+00
  0.00000000E+00  0.00000000E+00  0.00000000E+00
  0.00000000E+00  0.00000000E+00  0.00000000E+00
  0.00000000E+00  0.00000000E+00  0.00000000E+00
  0.00000000E+00  0.00000000E+00  0.00000000E+00
  0.00000000E+00  0.00000000E+00  0.00000000E+00
  0.00000000E+00  0.00000000E+00  0.00000000E+00
  0.00000000E+00  0.00000000E+00  0.00000000E+00
  0.00000000E+00  0.00000000E+00  0.00000000E+00
  0.00000000E+00  0.00000000E+00  0.00000000E+00
  0.00000000E+00  0.00000000E+00  0.00000000E+00
  0.00000000E+00  0.00000000E+00  0.00000000E+00
  0.00000000E+00  0.00000000E+00  0.00000000E+00
  0.00000000E+00  0.00000000E+00  0.00000000E+00
  0.00000000E+00  0.00000000E+00  0.00000000E+00
  0.00000000E+00  0.00000000E+00  0.00000000E+00
  0.00000000E+00  0.00000000E+00  0.00000000E+00
  0.00000000E+00  0.00000000E+00  0.00000000E+00
  0.00000000E+00  0.00000000E+00  0.00000000E+00
  0.00000000E+00  0.00000000E+00  0.00000000E+00
  0.00000000E+00  0.00000000E+00  0.00000000E+00
  0.00000000E+00  0.00000000E+00  0.00000000E+00
  0.00000000E+00  0.00000000E+00  0.00000000E+00
  0.00000000E+00  0.00000000E+00  0.00000000E+00
  0.00000000E+00  0.00000000E+00  0.00000000E+00
  0.00000000E+00  0.00000000E+00  0.00000000E+00
  0.00000000E+00  0.00000000E+00  0.00000000E+00
  0.00000000E+00  0.00000000E+00  0.00000000E+00
  0.00000000E+00  0.00000000E+00  0.00000000E+00
  0.00000000E+00  0.00000000E+00  0.00000000E+00
  0.00000000E+00  0.00000000E+00  0.00000000E+00
  0.00000000E+00  0.00000000E+00  0.00000000E+00
  0.00000000E+00  0.00000000E+00  0.00000000E+00
  0.00000000E+00  0.00000000E+00  0.00000000E+00
  0.00000000E+00  0.00000000E+00  0.00000000E+00
  0.00000000E+00  0.00000000E+00  0.00000000E+00
  0.00000000E+00  0.00000000E+00  0.00000000E+00
  0.00000000E+00  0.00000000E+00  0.00000000E+00
  0.00000000E+00  0.00000000E+00  0.00000000E+00
  0.00000000E+00  0.00000000E+00  0.00000000E+00
  0.00000000E+00  0.00000000E+00  0.00000000E+00
  0.00000000E+00  0.00000000E+00  0.00000000E+00
  0.00000000E+00  0.00000000E+00  0.00000000E+00
  0.00000000E+00  0.00000000E+00  0.00000000E+00
  0.00000000E+00  0.00000000E+00  0.00000000E+00
  0.00000000E+00  0.00000000E+00  0.00000000E+00
  0.00000000E+00  0.00000000E+00  0.00000000E+00
  0.00000000E+00  0.00000000E+00  0.00000000E+00
