Ba27 Ti27 O81                       
   1.00000000000000     
    12.0245668447183647    0.0000000000000000    0.0000000000000000
     0.0000000000000000   12.0245668447183647    0.0000000000000000
     0.0000000000000000    0.0000000000000000   12.0245668447183647
   Ba   Ti   O    Ti
    27    26    81     1
Direct
  0.1664268334301227  0.1663567502576991  0.1657290415577080
  0.1664700799693931  0.1664323338271407  0.5000219709514026
  0.1663937037301934  0.1663675233355666  0.8343238967850735
  0.1664410139273069  0.4998443990846492  0.1661576681119142
  0.1664767697195845  0.4998316629869554  0.4999991996478459
  0.1664231505789215  0.4998164758671388  0.8338387358562154
  0.1664163231614444  0.8332271721247539  0.1657080240478830
  0.1664484947842794  0.8332372808885715  0.5000309974343318
  0.1663817136105560  0.8332356331333336  0.8342906530162920
  0.4998237487851140  0.1664015767319393  0.1661890053311186
  0.4998524407749410  0.1664607927858320  0.5000228967527185
  0.4998197413182415  0.1664069083769206  0.8338710584050881
  0.4998705817880036  0.4998335163274696  0.1662664048485657
  0.4998971615953012  0.4998732774706788  0.5000002974585133
  0.4998557458978082  0.4998233679099423  0.8337519906949069
  0.4998504924910546  0.8332794243788033  0.1661754805987303
  0.4998428014818140  0.8333062912434046  0.5000202004592589
  0.4998416692118804  0.8332861376661763  0.8338506064334177
  0.8333001231518452  0.1663741170141622  0.1657246569643082
  0.8332769598986046  0.1664422270608079  0.4999928745351414
  0.8332669595900848  0.1663897042646704  0.8343139555201132
  0.8333255123456973  0.4998035558774533  0.1661499724067486
  0.8333252601881778  0.4998159726026660  0.4999827648300945
  0.8332984458405648  0.4997754770236805  0.8338320338177568
  0.8332597473753185  0.8332331804423682  0.1657078266101130
  0.8332369584921411  0.8332371185718199  0.4999995620830132
  0.8332251570055564  0.8332325060679846  0.8342718542359494
  0.9998202042700727  0.9997559802804107  0.3331041540718934
  0.9997783751871991  0.9997793250867891  0.6669247728247327
  0.9998444591000911  0.3328919804454912  0.0000195682525820
  0.9998843775137572  0.3331030380698988  0.3331704097086894
  0.9998589989064893  0.3330951371397763  0.6668175714746635
  0.9998063359475432  0.6666379804874970  0.9999692306297512
  0.9998449159029769  0.6664387370994017  0.3331785950730987
  0.9998105003818424  0.6664143984511034  0.6668009148025547
  0.3329215589445457  0.9997735221077311  0.0000224976584301
  0.3331379233958366  0.9998151010250270  0.3332149680300467
  0.3331201366541794  0.9998278945923870  0.6668602648135792
  0.3331895254761122  0.3331751638895299  0.0000212924312543
  0.3331580876296226  0.3331141893764982  0.3332069661144897
  0.3331380078772687  0.3331135865803679  0.6668309009232373
  0.3332240706507668  0.6664149180972541  0.9999975408598665
  0.3331371759941735  0.6665306955423163  0.3332043205783105
  0.3331176827639350  0.6665343086926471  0.6668112861269150
  0.6666685407747540  0.9997994819125811  0.0000245528237182
  0.6664608477424275  0.9998215000319871  0.3332020727760797
  0.6664532554418252  0.9998297324231329  0.6668290829564549
  0.6664360848844118  0.3331607824898641  0.0000172150073091
  0.6665774225074398  0.3331013942809737  0.3331985170566499
  0.6665586091823917  0.3330980302916679  0.6668147623364257
  0.6664347845211144  0.6663785042317929  0.9999899201867336
  0.6665541824412767  0.6665202029562488  0.3331884095562588
  0.6665266217169042  0.6665138461495604  0.6667916995040436
  0.1719721062767195  0.9997040831373266  0.0000029335580765
  0.1667511755794157  0.9998662043030148  0.3337406068090549
  0.1667138752933330  0.9998663515637822  0.6663729359901691
  0.1676882540717399  0.3347139290418362  0.0000237388059960
  0.1666994076535904  0.3331233734552055  0.3335624206682539
  0.1666730953318986  0.3331130052185247  0.6664707991572690
  0.1676830929826328  0.6650530700477801  0.9999863858632293
  0.1666789205537349  0.6666015696071550  0.3335580849781082
  0.1666512419645332  0.6665947147608834  0.6664258420972138
  0.4998344351289439  0.9998978936828495  0.0000063093318533
  0.4998425567501364  0.9998967003291159  0.3343764843831248
  0.4998327697217046  0.9999126870531899  0.6657473009681469
  0.4998460049043825  0.3341487643618147  0.0000412084143268
  0.4999213303946067  0.3332297341673070  0.3336180882538033
  0.4998948595717378  0.3332255429035844  0.6664103225719137
  0.4998791284957509  0.6654318142846073  0.9999925890524164
  0.4999040535217981  0.6665642827823844  0.3336025796397999
  0.4998774209596330  0.6665392509428527  0.6663873583472988
  0.8276668419070603  0.9998711620549005  0.0000793619744148
  0.8329815315528940  0.9998522610548062  0.3337761780381786
  0.8329519699599429  0.9998482859670922  0.6662036774532829
  0.8320603106335175  0.3346492625369378  0.0000086804930274
  0.8331552020441861  0.3331369591688699  0.3335661679449095
  0.8331279772345483  0.3331215714111406  0.6664530791228982
  0.8320370274818021  0.6648934985438253  0.9999692528780235
  0.8331243524526164  0.6665983329378435  0.3335334706571562
  0.8330923584757822  0.6665916137288571  0.6664338621188834
  0.9999158914496652  0.1719508267454460  0.0000629033299574
  0.9999024259504030  0.1667056060149200  0.3336391101501461
  0.9998503800153813  0.1667195432142591  0.6662972696223424
  0.9999028483089657  0.4998144875663753  0.0000253150785428
  0.9999418142676648  0.4998327789415701  0.3342852934321843
  0.9998948517299583  0.4998019055967416  0.6656495099085122
  0.9997492071124059  0.8276399859546201  0.9999051121181940
  0.9999015470986176  0.8329520519610671  0.3338401211275911
  0.9998485869556536  0.8329458518674774  0.6662570205752683
  0.3345937119180130  0.1676460014706867  0.0000441721520813
  0.3331653219716031  0.1666551620097749  0.3336009980378759
  0.3331277978806539  0.1666532935521101  0.6664770410496419
  0.3342012888891234  0.4998458430223797  0.0000079317676440
  0.3332665655066174  0.4998831049068495  0.3336309362497818
  0.3332268098701746  0.4998760312323256  0.6664218453045394
  0.3347969716441728  0.8320221962591861  0.0000365586746109
  0.3331444987330349  0.8331045131138881  0.3335740241392267
  0.3331271861308094  0.8331079928860433  0.6664811561441707
  0.6649812293095931  0.1676603035117836  0.0000156812133641
  0.6666473262591572  0.1666619634441901  0.3335564875747573
  0.6666149767234101  0.1666599102675966  0.6664756275605563
  0.6654721278747893  0.4998170589079958  0.0000042396408922
  0.6665864191841669  0.4998804582067315  0.3336032668130380
  0.6665545137181998  0.4998738946404401  0.6663879870806719
  0.6650050705019958  0.8320197919345097  0.0000106519377909
  0.6666290654622917  0.8331077200134830  0.3335698294186505
  0.6665694767577324  0.8331028735977711  0.6664304356427366
  0.9998613560930799  0.9996972204349445  0.1689926021456363
  0.9999078589348028  0.9999001676869245  0.5000158581599126
  0.9997375383540833  0.9998415998206674  0.8310351274890589
  0.9999188927425686  0.3342644492981910  0.1677255804425597
  0.9999449610961029  0.3331641789170843  0.4999897449331522
  0.9999057814079138  0.3342285232902406  0.8322925399567956
  0.9998820465864906  0.6654554091684413  0.1677156358566819
  0.9998775087528966  0.6663745078837197  0.4999973453966375
  0.9998715373062591  0.6653056224072257  0.8322403827452005
  0.3342684537180490  0.9998627411955838  0.1677543461351413
  0.3331961751933499  0.9998759179700215  0.5000516980242958
  0.3342644013993928  0.9998580479760739  0.8323179211246799
  0.3333273656945134  0.3333085992782482  0.1672736746184812
  0.3333049836442872  0.3332830793873366  0.5000264680886232
  0.3333308883750717  0.3332892639032544  0.8327820660900151
  0.3333266850387344  0.6664224069621524  0.1672535866459105
  0.3332848662559172  0.6665142986746939  0.5000097010162686
  0.3333097403813181  0.6664433809885779  0.8327610672911293
  0.6653476560800788  0.9998759069138923  0.1677621550771363
  0.6663920206701344  0.9999241888012793  0.5000174712059035
  0.6654500038223025  0.9998637802501185  0.8322902729660230
  0.6664863456193607  0.3332975990806314  0.1672583983334980
  0.6665429839467352  0.3332660916659816  0.5000078875997552
  0.6664485115683767  0.3333030048571096  0.8327699801687629
  0.6664468178379565  0.6664229376141226  0.1672385265404359
  0.6665169166833569  0.6665028084534903  0.4999911668134484
  0.6664249606316422  0.6664195893076389  0.8327459515741163
  0.9997919332894464  0.9997526911701516  0.0000115664731633
 
  0.00000000E+00  0.00000000E+00  0.00000000E+00
  0.00000000E+00  0.00000000E+00  0.00000000E+00
  0.00000000E+00  0.00000000E+00  0.00000000E+00
  0.00000000E+00  0.00000000E+00  0.00000000E+00
  0.00000000E+00  0.00000000E+00  0.00000000E+00
  0.00000000E+00  0.00000000E+00  0.00000000E+00
  0.00000000E+00  0.00000000E+00  0.00000000E+00
  0.00000000E+00  0.00000000E+00  0.00000000E+00
  0.00000000E+00  0.00000000E+00  0.00000000E+00
  0.00000000E+00  0.00000000E+00  0.00000000E+00
  0.00000000E+00  0.00000000E+00  0.00000000E+00
  0.00000000E+00  0.00000000E+00  0.00000000E+00
  0.00000000E+00  0.00000000E+00  0.00000000E+00
  0.00000000E+00  0.00000000E+00  0.00000000E+00
  0.00000000E+00  0.00000000E+00  0.00000000E+00
  0.00000000E+00  0.00000000E+00  0.00000000E+00
  0.00000000E+00  0.00000000E+00  0.00000000E+00
  0.00000000E+00  0.00000000E+00  0.00000000E+00
  0.00000000E+00  0.00000000E+00  0.00000000E+00
  0.00000000E+00  0.00000000E+00  0.00000000E+00
  0.00000000E+00  0.00000000E+00  0.00000000E+00
  0.00000000E+00  0.00000000E+00  0.00000000E+00
  0.00000000E+00  0.00000000E+00  0.00000000E+00
  0.00000000E+00  0.00000000E+00  0.00000000E+00
  0.00000000E+00  0.00000000E+00  0.00000000E+00
  0.00000000E+00  0.00000000E+00  0.00000000E+00
  0.00000000E+00  0.00000000E+00  0.00000000E+00
  0.00000000E+00  0.00000000E+00  0.00000000E+00
  0.00000000E+00  0.00000000E+00  0.00000000E+00
  0.00000000E+00  0.00000000E+00  0.00000000E+00
  0.00000000E+00  0.00000000E+00  0.00000000E+00
  0.00000000E+00  0.00000000E+00  0.00000000E+00
  0.00000000E+00  0.00000000E+00  0.00000000E+00
  0.00000000E+00  0.00000000E+00  0.00000000E+00
  0.00000000E+00  0.00000000E+00  0.00000000E+00
  0.00000000E+00  0.00000000E+00  0.00000000E+00
  0.00000000E+00  0.00000000E+00  0.00000000E+00
  0.00000000E+00  0.00000000E+00  0.00000000E+00
  0.00000000E+00  0.00000000E+00  0.00000000E+00
  0.00000000E+00  0.00000000E+00  0.00000000E+00
  0.00000000E+00  0.00000000E+00  0.00000000E+00
  0.00000000E+00  0.00000000E+00  0.00000000E+00
  0.00000000E+00  0.00000000E+00  0.00000000E+00
  0.00000000E+00  0.00000000E+00  0.00000000E+00
  0.00000000E+00  0.00000000E+00  0.00000000E+00
  0.00000000E+00  0.00000000E+00  0.00000000E+00
  0.00000000E+00  0.00000000E+00  0.00000000E+00
  0.00000000E+00  0.00000000E+00  0.00000000E+00
  0.00000000E+00  0.00000000E+00  0.00000000E+00
  0.00000000E+00  0.00000000E+00  0.00000000E+00
  0.00000000E+00  0.00000000E+00  0.00000000E+00
  0.00000000E+00  0.00000000E+00  0.00000000E+00
  0.00000000E+00  0.00000000E+00  0.00000000E+00
  0.00000000E+00  0.00000000E+00  0.00000000E+00
  0.00000000E+00  0.00000000E+00  0.00000000E+00
  0.00000000E+00  0.00000000E+00  0.00000000E+00
  0.00000000E+00  0.00000000E+00  0.00000000E+00
  0.00000000E+00  0.00000000E+00  0.00000000E+00
  0.00000000E+00  0.00000000E+00  0.00000000E+00
  0.00000000E+00  0.00000000E+00  0.00000000E+00
  0.00000000E+00  0.00000000E+00  0.00000000E+00
  0.00000000E+00  0.00000000E+00  0.00000000E+00
  0.00000000E+00  0.00000000E+00  0.00000000E+00
  0.00000000E+00  0.00000000E+00  0.00000000E+00
  0.00000000E+00  0.00000000E+00  0.00000000E+00
  0.00000000E+00  0.00000000E+00  0.00000000E+00
  0.00000000E+00  0.00000000E+00  0.00000000E+00
  0.00000000E+00  0.00000000E+00  0.00000000E+00
  0.00000000E+00  0.00000000E+00  0.00000000E+00
  0.00000000E+00  0.00000000E+00  0.00000000E+00
  0.00000000E+00  0.00000000E+00  0.00000000E+00
  0.00000000E+00  0.00000000E+00  0.00000000E+00
  0.00000000E+00  0.00000000E+00  0.00000000E+00
  0.00000000E+00  0.00000000E+00  0.00000000E+00
  0.00000000E+00  0.00000000E+00  0.00000000E+00
  0.00000000E+00  0.00000000E+00  0.00000000E+00
  0.00000000E+00  0.00000000E+00  0.00000000E+00
  0.00000000E+00  0.00000000E+00  0.00000000E+00
  0.00000000E+00  0.00000000E+00  0.00000000E+00
  0.00000000E+00  0.00000000E+00  0.00000000E+00
  0.00000000E+00  0.00000000E+00  0.00000000E+00
  0.00000000E+00  0.00000000E+00  0.00000000E+00
  0.00000000E+00  0.00000000E+00  0.00000000E+00
  0.00000000E+00  0.00000000E+00  0.00000000E+00
  0.00000000E+00  0.00000000E+00  0.00000000E+00
  0.00000000E+00  0.00000000E+00  0.00000000E+00
  0.00000000E+00  0.00000000E+00  0.00000000E+00
  0.00000000E+00  0.00000000E+00  0.00000000E+00
  0.00000000E+00  0.00000000E+00  0.00000000E+00
  0.00000000E+00  0.00000000E+00  0.00000000E+00
  0.00000000E+00  0.00000000E+00  0.00000000E+00
  0.00000000E+00  0.00000000E+00  0.00000000E+00
  0.00000000E+00  0.00000000E+00  0.00000000E+00
  0.00000000E+00  0.00000000E+00  0.00000000E+00
  0.00000000E+00  0.00000000E+00  0.00000000E+00
  0.00000000E+00  0.00000000E+00  0.00000000E+00
  0.00000000E+00  0.00000000E+00  0.00000000E+00
  0.00000000E+00  0.00000000E+00  0.00000000E+00
  0.00000000E+00  0.00000000E+00  0.00000000E+00
  0.00000000E+00  0.00000000E+00  0.00000000E+00
  0.00000000E+00  0.00000000E+00  0.00000000E+00
  0.00000000E+00  0.00000000E+00  0.00000000E+00
  0.00000000E+00  0.00000000E+00  0.00000000E+00
  0.00000000E+00  0.00000000E+00  0.00000000E+00
  0.00000000E+00  0.00000000E+00  0.00000000E+00
  0.00000000E+00  0.00000000E+00  0.00000000E+00
  0.00000000E+00  0.00000000E+00  0.00000000E+00
  0.00000000E+00  0.00000000E+00  0.00000000E+00
  0.00000000E+00  0.00000000E+00  0.00000000E+00
  0.00000000E+00  0.00000000E+00  0.00000000E+00
  0.00000000E+00  0.00000000E+00  0.00000000E+00
  0.00000000E+00  0.00000000E+00  0.00000000E+00
  0.00000000E+00  0.00000000E+00  0.00000000E+00
  0.00000000E+00  0.00000000E+00  0.00000000E+00
  0.00000000E+00  0.00000000E+00  0.00000000E+00
  0.00000000E+00  0.00000000E+00  0.00000000E+00
  0.00000000E+00  0.00000000E+00  0.00000000E+00
  0.00000000E+00  0.00000000E+00  0.00000000E+00
  0.00000000E+00  0.00000000E+00  0.00000000E+00
  0.00000000E+00  0.00000000E+00  0.00000000E+00
  0.00000000E+00  0.00000000E+00  0.00000000E+00
  0.00000000E+00  0.00000000E+00  0.00000000E+00
  0.00000000E+00  0.00000000E+00  0.00000000E+00
  0.00000000E+00  0.00000000E+00  0.00000000E+00
  0.00000000E+00  0.00000000E+00  0.00000000E+00
  0.00000000E+00  0.00000000E+00  0.00000000E+00
  0.00000000E+00  0.00000000E+00  0.00000000E+00
  0.00000000E+00  0.00000000E+00  0.00000000E+00
  0.00000000E+00  0.00000000E+00  0.00000000E+00
  0.00000000E+00  0.00000000E+00  0.00000000E+00
  0.00000000E+00  0.00000000E+00  0.00000000E+00
  0.00000000E+00  0.00000000E+00  0.00000000E+00
  0.00000000E+00  0.00000000E+00  0.00000000E+00
  0.00000000E+00  0.00000000E+00  0.00000000E+00
  0.00000000E+00  0.00000000E+00  0.00000000E+00
