Sr32 Ti32 O96
1.0
  11.0288193702    0.0000000000    0.0000000000
   0.0000000000   11.0288193702    0.0000000000
   0.0000000000    0.0000000000   15.7893945457
Sr Ti O
32 32 96
direct
   0.2500000000    0.0000000000    0.1250000000 Sr
   0.2500000000    0.0000000000    0.6250000000 Sr
   0.2500000000    0.5000000000    0.1250000000 Sr
   0.2500000000    0.5000000000    0.6250000000 Sr
   0.7500000000    0.0000000000    0.1250000000 Sr
   0.7500000000    0.0000000000    0.6250000000 Sr
   0.7500000000    0.5000000000    0.1250000000 Sr
   0.7500000000    0.5000000000    0.6250000000 Sr
   0.5000000000    0.2500000000    0.3750000000 Sr
   0.5000000000    0.2500000000    0.8750000000 Sr
   0.5000000000    0.7500000000    0.3750000000 Sr
   0.5000000000    0.7500000000    0.8750000000 Sr
   1.0000000000    0.2500000000    0.3750000000 Sr
   1.0000000000    0.2500000000    0.8750000000 Sr
   1.0000000000    0.7500000000    0.3750000000 Sr
   1.0000000000    0.7500000000    0.8750000000 Sr
   0.0000000000    0.2500000000    0.1250000000 Sr
   0.0000000000    0.2500000000    0.6250000000 Sr
   0.0000000000    0.7500000000    0.1250000000 Sr
   0.0000000000    0.7500000000    0.6250000000 Sr
   0.5000000000    0.2500000000    0.1250000000 Sr
   0.5000000000    0.2500000000    0.6250000000 Sr
   0.5000000000    0.7500000000    0.1250000000 Sr
   0.5000000000    0.7500000000    0.6250000000 Sr
   0.2500000000    0.5000000000    0.3750000000 Sr
   0.2500000000    0.5000000000    0.8750000000 Sr
   0.2500000000    1.0000000000    0.3750000000 Sr
   0.2500000000    1.0000000000    0.8750000000 Sr
   0.7500000000    0.5000000000    0.3750000000 Sr
   0.7500000000    0.5000000000    0.8750000000 Sr
   0.7500000000    1.0000000000    0.3750000000 Sr
   0.7500000000    1.0000000000    0.8750000000 Sr
   0.0000000000    0.0000000000    0.2500000000 Ti
   0.0000000000    0.0000000000    0.7500000000 Ti
   0.0000000000    0.5000000000    0.2500000000 Ti
   0.0000000000    0.5000000000    0.7500000000 Ti
   0.5000000000    0.0000000000    0.2500000000 Ti
   0.5000000000    0.0000000000    0.7500000000 Ti
   0.5000000000    0.5000000000    0.2500000000 Ti
   0.5000000000    0.5000000000    0.7500000000 Ti
   0.2500000000    0.2500000000    0.0000000000 Ti
   0.2500000000    0.2500000000    0.5000000000 Ti
   0.2500000000    0.7500000000    0.0000000000 Ti
   0.2500000000    0.7500000000    0.5000000000 Ti
   0.7500000000    0.2500000000    0.0000000000 Ti
   0.7500000000    0.2500000000    0.5000000000 Ti
   0.7500000000    0.7500000000    0.0000000000 Ti
   0.7500000000    0.7500000000    0.5000000000 Ti
   0.0000000000    0.0000000000    0.0000000000 Ti
   0.0000000000    0.0000000000    0.5000000000 Ti
   0.0000000000    0.5000000000    0.0000000000 Ti
   0.0000000000    0.5000000000    0.5000000000 Ti
   0.5000000000    0.0000000000    0.0000000000 Ti
   0.5000000000    0.0000000000    0.5000000000 Ti
   0.5000000000    0.5000000000    0.0000000000 Ti
   0.5000000000    0.5000000000    0.5000000000 Ti
   0.2500000000    0.2500000000    0.2500000000 Ti
   0.2500000000    0.2500000000    0.7500000000 Ti
   0.2500000000    0.7500000000    0.2500000000 Ti
   0.2500000000    0.7500000000    0.7500000000 Ti
   0.7500000000    0.2500000000    0.2500000000 Ti
   0.7500000000    0.2500000000    0.7500000000 Ti
   0.7500000000    0.7500000000    0.2500000000 Ti
   0.7500000000    0.7500000000    0.7500000000 Ti
   0.3569894489    0.1069894489    0.5000000000 O
   0.3569894489    0.1069894489    0.0000000000 O
   0.3569894489    0.6069894489    0.5000000000 O
   0.3569894489    0.6069894489    0.0000000000 O
   0.8569894489    0.1069894489    0.5000000000 O
   0.8569894489    0.1069894489    0.0000000000 O
   0.8569894489    0.6069894489    0.5000000000 O
   0.8569894489    0.6069894489    0.0000000000 O
   0.1069894489    0.3569894489    0.2500000000 O
   0.1069894489    0.3569894489    0.7500000000 O
   0.1069894489    0.8569894489    0.2500000000 O
   0.1069894489    0.8569894489    0.7500000000 O
   0.6069894489    0.3569894489    0.2500000000 O
   0.6069894489    0.3569894489    0.7500000000 O
   0.6069894489    0.8569894489    0.2500000000 O
   0.6069894489    0.8569894489    0.7500000000 O
   0.1069894489    0.1430105511    0.0000000000 O
   0.1069894489    0.1430105511    0.5000000000 O
   0.1069894489    0.6430105511    0.0000000000 O
   0.1069894489    0.6430105511    0.5000000000 O
   0.6069894489    0.1430105511    0.0000000000 O
   0.6069894489    0.1430105511    0.5000000000 O
   0.6069894489    0.6430105511    0.0000000000 O
   0.6069894489    0.6430105511    0.5000000000 O
   0.3569894489    0.3930105511    0.2500000000 O
   0.3569894489    0.3930105511    0.7500000000 O
   0.3569894489    0.8930105511    0.2500000000 O
   0.3569894489    0.8930105511    0.7500000000 O
   0.8569894489    0.3930105511    0.2500000000 O
   0.8569894489    0.3930105511    0.7500000000 O
   0.8569894489    0.8930105511    0.2500000000 O
   0.8569894489    0.8930105511    0.7500000000 O
   0.1430105511    0.1069894489    0.2500000000 O
   0.1430105511    0.1069894489    0.7500000000 O
   0.1430105511    0.6069894489    0.2500000000 O
   0.1430105511    0.6069894489    0.7500000000 O
   0.6430105511    0.1069894489    0.2500000000 O
   0.6430105511    0.1069894489    0.7500000000 O
   0.6430105511    0.6069894489    0.2500000000 O
   0.6430105511    0.6069894489    0.7500000000 O
   0.3930105511    0.3569894489    0.0000000000 O
   0.3930105511    0.3569894489    0.5000000000 O
   0.3930105511    0.8569894489    0.0000000000 O
   0.3930105511    0.8569894489    0.5000000000 O
   0.8930105511    0.3569894489    0.0000000000 O
   0.8930105511    0.3569894489    0.5000000000 O
   0.8930105511    0.8569894489    0.0000000000 O
   0.8930105511    0.8569894489    0.5000000000 O
   0.3930105511    0.1430105511    0.2500000000 O
   0.3930105511    0.1430105511    0.7500000000 O
   0.3930105511    0.6430105511    0.2500000000 O
   0.3930105511    0.6430105511    0.7500000000 O
   0.8930105511    0.1430105511    0.2500000000 O
   0.8930105511    0.1430105511    0.7500000000 O
   0.8930105511    0.6430105511    0.2500000000 O
   0.8930105511    0.6430105511    0.7500000000 O
   0.1430105511    0.3930105511    0.0000000000 O
   0.1430105511    0.3930105511    0.5000000000 O
   0.1430105511    0.8930105511    0.0000000000 O
   0.1430105511    0.8930105511    0.5000000000 O
   0.6430105511    0.3930105511    0.0000000000 O
   0.6430105511    0.3930105511    0.5000000000 O
   0.6430105511    0.8930105511    0.0000000000 O
   0.6430105511    0.8930105511    0.5000000000 O
   0.0000000000    0.0000000000    0.3750000000 O
   0.0000000000    0.0000000000    0.8750000000 O
   0.0000000000    0.5000000000    0.3750000000 O
   0.0000000000    0.5000000000    0.8750000000 O
   0.5000000000    0.0000000000    0.3750000000 O
   0.5000000000    0.0000000000    0.8750000000 O
   0.5000000000    0.5000000000    0.3750000000 O
   0.5000000000    0.5000000000    0.8750000000 O
   0.2500000000    0.2500000000    0.1250000000 O
   0.2500000000    0.2500000000    0.6250000000 O
   0.2500000000    0.7500000000    0.1250000000 O
   0.2500000000    0.7500000000    0.6250000000 O
   0.7500000000    0.2500000000    0.1250000000 O
   0.7500000000    0.2500000000    0.6250000000 O
   0.7500000000    0.7500000000    0.1250000000 O
   0.7500000000    0.7500000000    0.6250000000 O
   0.0000000000    0.0000000000    0.1250000000 O
   0.0000000000    0.0000000000    0.6250000000 O
   0.0000000000    0.5000000000    0.1250000000 O
   0.0000000000    0.5000000000    0.6250000000 O
   0.5000000000    0.0000000000    0.1250000000 O
   0.5000000000    0.0000000000    0.6250000000 O
   0.5000000000    0.5000000000    0.1250000000 O
   0.5000000000    0.5000000000    0.6250000000 O
   0.2500000000    0.2500000000    0.3750000000 O
   0.2500000000    0.2500000000    0.8750000000 O
   0.2500000000    0.7500000000    0.3750000000 O
   0.2500000000    0.7500000000    0.8750000000 O
   0.7500000000    0.2500000000    0.3750000000 O
   0.7500000000    0.2500000000    0.8750000000 O
   0.7500000000    0.7500000000    0.3750000000 O
   0.7500000000    0.7500000000    0.8750000000 O
