Sr32 Ho1 Ti32 O96                       
   1.00000000000000     
    11.0288193702468078    0.0000000000000000    0.0000000000000000
     0.0000000000000000   11.0288193702468078    0.0000000000000000
     0.0000000000000000    0.0000000000000000   15.7893945456516640
   Sr   Ti   O    O 
    32    32    95     1
Direct
  0.2524562139034038  0.0004992300294416  0.1235517357482053
  0.2520607741798627  0.0003704332817176  0.6254137638008254
  0.2501244884143665  0.4998731056832588  0.1253300985612510
  0.2501893920173046  0.4997396634946805  0.6253457871890157
  0.7475971075432877  0.9995347007298355  0.1235624465297672
  0.7480025970369089  0.9996566273332539  0.6254416801241689
  0.7499345432535126  0.5001524039096708  0.1253155041342376
  0.7498826954476409  0.5002948146768806  0.6253314086146823
  0.0018521813473043  0.2561612478896823  0.3761745568815710
  0.0003156551011700  0.2508895621748665  0.8752649085448730
  0.9982127452845869  0.7438754480403765  0.3761318409211666
  0.9997433630989581  0.7491532755402364  0.8752147590723891
  0.4999527561911481  0.2507649770030816  0.3748557307515190
  0.5001098726656300  0.2502723733942373  0.8748924943571561
  0.5001097936573112  0.7492660602749862  0.3748976797310573
  0.4999484669917906  0.7497658871665885  0.8749259550729368
  0.0003603356837091  0.2520574777518629  0.1246338976644446
  0.0005104055262508  0.2524307618235364  0.6265136666405572
  0.9996533596811951  0.7479951873646407  0.1245978042388938
  0.9995312427057712  0.7475946075911305  0.6264710405896866
  0.4997235300528983  0.2501701593022909  0.1246876815273581
  0.4998767024655370  0.2501170896846266  0.6247032545805108
  0.5002795795241747  0.7498757506806810  0.1247295069589932
  0.5001549469832339  0.7499247430348708  0.6247420942751712
  0.2561827621012775  0.0018305454656337  0.3738861933171274
  0.2508622752154272  0.0003095855260172  0.8747922478338206
  0.2507874556471907  0.4999430539094826  0.3751924748624350
  0.2502530697524311  0.5000996336021534  0.8751383211437774
  0.7438641600257447  0.9981977818336055  0.3739020317554991
  0.7491582141797181  0.9997442918281320  0.8748154596682705
  0.7492634119686993  0.5001060217882215  0.3751694040881378
  0.7497684423820871  0.4999471306271919  0.8751325593089442
  0.0000022963703659  0.0000167668819055  0.2442938902635933
  0.0000214191894696  0.0000274803923664  0.7515227288990439
  0.0000204490717201  0.5000183100161700  0.2497153265890472
  0.0000171162494269  0.5000138683705196  0.7503648074298194
  0.5000160881906186  0.0000131991221900  0.2494838863615642
  0.5000213674974110  0.0000182257291359  0.7501690059310032
  0.5000203028387382  0.5000133103295190  0.2497879993492673
  0.5000315898811161  0.5000235344421410  0.7498451707972457
  0.2498578549319560  0.2500187942254760  0.5001720015064968
  0.2500342873415717  0.2502088520892123 -0.0000774414935597
  0.2502108795280465  0.7497066352295995  0.4995930501527123
  0.2496530143372217  0.7502338265239604  0.0000052790013411
  0.7498334680204782  0.2503301705127820  0.4995924239618522
  0.7503975831731285  0.2498073777133409  0.0000040678627006
  0.7502014135647522  0.7500179495762967  0.5001695869431313
  0.7499996176221364  0.7498353012067464 -0.0000806377600348
  0.0000221184108413  0.0000192884766417  0.9985292642813999
  0.0000065365285949  0.0000120393725289  0.5057591172468805
  0.0000220078082843  0.5000283904011351  0.9998650300064743
  0.0000145163361591  0.5000116532845338  0.5005219708614606
  0.5000194453294166  0.0000211657946241  0.9996526181302089
  0.5000314488651607  0.0000158643348428  0.5003263972842364
  0.5000211218436049  0.5000196222007407  0.0002210976034630
  0.5000353521458596  0.5000180058618399  0.5002761727548818
  0.2500103522036638  0.2498478353327847  0.2498710660573050
  0.2502243348217509  0.2500397704301159  0.7500971656093407
  0.2503281301476032  0.7498230925580298  0.2504534725952944
  0.2498093780417947  0.7503933102897525  0.7500306974057810
  0.7497092056243642  0.2502096190714007  0.2504509447334192
  0.7502343982227072  0.2496439602690068  0.7500311257582731
  0.7500201637858837  0.7501846954252840  0.2498658941391887
  0.7498324519226589  0.7500017314977154  0.7500862417237810
  0.3577438354309436  0.1076676253519500  0.9997961257132683
  0.3578912671175912  0.1078749902546685  0.5002250442896720
  0.3572621954763761  0.6078861762486488  0.0011913316454251
  0.3574593332317160  0.6079107350647995  0.5010664120429789
  0.8575176491608402  0.1068353700083832  0.9991663309856057
  0.8592163849753662  0.1055729344451172  0.4939122957184742
  0.8574502715128146  0.6073389035454857  0.0003277275996661
  0.8577592517824574  0.6074157031986288  0.4995921882987345
  0.1078620560491244  0.3578743914211880  0.2498303568707704
  0.1076793286306668  0.3577467675456357  0.7502497757455386
  0.1055702659121811  0.8591993157925638  0.2560506401731846
  0.1068259905016874  0.8575213412727547  0.7507940128108479
  0.6079086154422417  0.3574385638926207  0.2489209569692779
  0.6078972202977360  0.3572646601798136  0.7487784355684238
  0.6074195245265877  0.8577504601969526  0.2504603932443915
  0.6073326088857983  0.8574454421847127  0.7497242078107100
  0.1071242125422922  0.1427235372105957  0.0003907761203832
  0.1063761494085078  0.1426369646956950  0.5009470243120488
  0.1071257549496423  0.6427485270143932  0.9999994856058794
  0.1073830506888790  0.6427796297117027  0.5003572407047937
  0.6078049730147224  0.1423552507512378  0.0005065626974600
  0.6083375261149353  0.1418111006674434  0.4998294218490112
  0.6074482558471875  0.6424667254858912  0.0000516227323511
  0.6077785865824362  0.6422489791468418  0.4996726261804977
  0.3577876115723336  0.3922590032375635  0.2505454891400142
  0.3575812744245387  0.3925824589906150  0.7501678113527714
  0.3572566015302265  0.8926508642568722  0.2496943184970793
  0.3572964172457914  0.8929197102203887  0.7500507053470760
  0.8582165418678649  0.3917180986016854  0.2502235518960688
  0.8576841122666768  0.3922368722678644  0.7495294377701172
  0.8573825456091082  0.8936660900956156  0.2492881908063133
  0.8573199671672094  0.8929091609028221  0.7498511105001074
  0.1426376098033623  0.1063599252593088  0.2491193221351542
  0.1427230969114333  0.1071256311884230  0.7496386627673794
  0.1418253537203983  0.6083160058724365  0.2502307317383983
  0.1423512020813139  0.6078009117197533  0.7495269759753761
  0.6427789052264488  0.1073813848089376  0.2496949668106100
  0.6427454414404691  0.1071230168741365  0.7500479508212009
  0.6422545681848407  0.6077584088843910  0.2503854921057413
  0.6424712291533174  0.6074495923288783  0.7499972030390252
  0.3922723935618541  0.3577893526950797  0.4995129657875049
  0.3925821352738199  0.3575725866769120  0.9998883681147316
  0.3917170804485883  0.8582227864100681  0.4998266465185758
  0.3922370702785478  0.8576829460451968  0.0004970247209627
  0.8926697475409386  0.3572427243493906  0.5003559310346197
  0.8929095604479099  0.3573082870815227  0.9999951413150545
  0.8936782643294681  0.8573764164276569  0.5007651526597724
  0.8929063919543943  0.8573221681477572  0.0002079951940489
  0.3926075242541277  0.1422754734996814  0.2504727216209152
  0.3927168918633717  0.1425930013829964  0.7497361284770596
  0.3921328107065077  0.6425839563479671  0.2489928855077866
  0.3921578801339314  0.6427784388849733  0.7488413043877136
  0.8944608858257107  0.1408391060245511  0.2561095188778011
  0.8932237560528751  0.1425302365126729  0.7508860013357904
  0.8921773425170498  0.6421593710993243  0.2498358859818274
  0.8923699494398228  0.6422923827198365  0.7502511809009715
  0.1422933051927564  0.3926136587869093  0.4995850961523130
  0.1425889534660100  0.3927128643347968  0.0003132416046229
  0.1408461922280352  0.8944772467536338  0.4940084012658731
  0.1425321182781668  0.8932159870512903  0.9992544448845919
  0.6426064560013831  0.3921297361012792  0.5011477170316309
  0.6427796325257905  0.3921527273256917  0.0012654324038544
  0.6421646657659881  0.8921660060137697  0.5002262610703063
  0.6422916650226895  0.8923722267363662  0.9997985835536627
  0.0001684891986091  0.0000797183583013  0.8750280387209203
  0.0000175942924544  0.5000124796958786  0.3750835149029844
  0.0000165671829866  0.5000214667695358  0.8750512135242141
  0.5000221116781202  0.0000149045440130  0.3749616819393088
  0.5000301236036567  0.0000216269955681  0.8749827373140726
  0.5001328848805885  0.5000492156448880  0.3750323181407079
  0.5001282509924737  0.5000641240915772  0.8750250981309127
  0.2504159785690953  0.2499313907882680  0.1250679909375929
  0.2499535372014649  0.2504244430261737  0.6249778541420873
  0.2461324959551231  0.7526628118008435  0.1257962577836468
  0.2473841436651282  0.7539297980625679  0.6242483813888333
  0.7540086260215405  0.2473065184807299  0.1257938687716940
  0.7527555087899448  0.2460202966292563  0.6242476906849705
  0.7497789989694136  0.7502696484064979  0.1250648043466825
  0.7502774864256939  0.7497722257322749  0.6249821490929455
  0.9998440399512435  0.9999465648608107  0.1240658569555834
  0.9997990547692585  0.9999485376711739  0.6259874639807445
  0.0000201650203168  0.5000209642480505  0.1250323536286172
  0.0000102462642332  0.5000049919182141  0.6251088978631465
  0.5000076140087565  0.0000157022223551  0.1249265220955412
  0.5000138380385988  0.0000216326557466  0.6250097428426026
  0.4999017922451889  0.4999645989119592  0.1251620244983346
  0.4999132104636733  0.4999717374455075  0.6248949337489985
  0.2490614210436525  0.2490669546054774  0.3750298073017831
  0.2497158733712701  0.2497140424136912  0.8750163078899469
  0.2524108797609722  0.7476275998847743  0.3750260761656981
  0.2504898074930422  0.7495400866039889  0.8750154019494629
  0.7475531306631318  0.2524949577649583  0.3750239148019382
  0.7494687835879142  0.2505657268073770  0.8750185997861233
  0.7507847847111364  0.7507833943234667  0.3750269428976422
  0.7501290327663183  0.7501301288340555  0.8750183051286268
  0.0001129709411305  0.0000602523959879  0.3750247158749111
 
  0.00000000E+00  0.00000000E+00  0.00000000E+00
  0.00000000E+00  0.00000000E+00  0.00000000E+00
  0.00000000E+00  0.00000000E+00  0.00000000E+00
  0.00000000E+00  0.00000000E+00  0.00000000E+00
  0.00000000E+00  0.00000000E+00  0.00000000E+00
  0.00000000E+00  0.00000000E+00  0.00000000E+00
  0.00000000E+00  0.00000000E+00  0.00000000E+00
  0.00000000E+00  0.00000000E+00  0.00000000E+00
  0.00000000E+00  0.00000000E+00  0.00000000E+00
  0.00000000E+00  0.00000000E+00  0.00000000E+00
  0.00000000E+00  0.00000000E+00  0.00000000E+00
  0.00000000E+00  0.00000000E+00  0.00000000E+00
  0.00000000E+00  0.00000000E+00  0.00000000E+00
  0.00000000E+00  0.00000000E+00  0.00000000E+00
  0.00000000E+00  0.00000000E+00  0.00000000E+00
  0.00000000E+00  0.00000000E+00  0.00000000E+00
  0.00000000E+00  0.00000000E+00  0.00000000E+00
  0.00000000E+00  0.00000000E+00  0.00000000E+00
  0.00000000E+00  0.00000000E+00  0.00000000E+00
  0.00000000E+00  0.00000000E+00  0.00000000E+00
  0.00000000E+00  0.00000000E+00  0.00000000E+00
  0.00000000E+00  0.00000000E+00  0.00000000E+00
  0.00000000E+00  0.00000000E+00  0.00000000E+00
  0.00000000E+00  0.00000000E+00  0.00000000E+00
  0.00000000E+00  0.00000000E+00  0.00000000E+00
  0.00000000E+00  0.00000000E+00  0.00000000E+00
  0.00000000E+00  0.00000000E+00  0.00000000E+00
  0.00000000E+00  0.00000000E+00  0.00000000E+00
  0.00000000E+00  0.00000000E+00  0.00000000E+00
  0.00000000E+00  0.00000000E+00  0.00000000E+00
  0.00000000E+00  0.00000000E+00  0.00000000E+00
  0.00000000E+00  0.00000000E+00  0.00000000E+00
  0.00000000E+00  0.00000000E+00  0.00000000E+00
  0.00000000E+00  0.00000000E+00  0.00000000E+00
  0.00000000E+00  0.00000000E+00  0.00000000E+00
  0.00000000E+00  0.00000000E+00  0.00000000E+00
  0.00000000E+00  0.00000000E+00  0.00000000E+00
  0.00000000E+00  0.00000000E+00  0.00000000E+00
  0.00000000E+00  0.00000000E+00  0.00000000E+00
  0.00000000E+00  0.00000000E+00  0.00000000E+00
  0.00000000E+00  0.00000000E+00  0.00000000E+00
  0.00000000E+00  0.00000000E+00  0.00000000E+00
  0.00000000E+00  0.00000000E+00  0.00000000E+00
  0.00000000E+00  0.00000000E+00  0.00000000E+00
  0.00000000E+00  0.00000000E+00  0.00000000E+00
  0.00000000E+00  0.00000000E+00  0.00000000E+00
  0.00000000E+00  0.00000000E+00  0.00000000E+00
  0.00000000E+00  0.00000000E+00  0.00000000E+00
  0.00000000E+00  0.00000000E+00  0.00000000E+00
  0.00000000E+00  0.00000000E+00  0.00000000E+00
  0.00000000E+00  0.00000000E+00  0.00000000E+00
  0.00000000E+00  0.00000000E+00  0.00000000E+00
  0.00000000E+00  0.00000000E+00  0.00000000E+00
  0.00000000E+00  0.00000000E+00  0.00000000E+00
  0.00000000E+00  0.00000000E+00  0.00000000E+00
  0.00000000E+00  0.00000000E+00  0.00000000E+00
  0.00000000E+00  0.00000000E+00  0.00000000E+00
  0.00000000E+00  0.00000000E+00  0.00000000E+00
  0.00000000E+00  0.00000000E+00  0.00000000E+00
  0.00000000E+00  0.00000000E+00  0.00000000E+00
  0.00000000E+00  0.00000000E+00  0.00000000E+00
  0.00000000E+00  0.00000000E+00  0.00000000E+00
  0.00000000E+00  0.00000000E+00  0.00000000E+00
  0.00000000E+00  0.00000000E+00  0.00000000E+00
  0.00000000E+00  0.00000000E+00  0.00000000E+00
  0.00000000E+00  0.00000000E+00  0.00000000E+00
  0.00000000E+00  0.00000000E+00  0.00000000E+00
  0.00000000E+00  0.00000000E+00  0.00000000E+00
  0.00000000E+00  0.00000000E+00  0.00000000E+00
  0.00000000E+00  0.00000000E+00  0.00000000E+00
  0.00000000E+00  0.00000000E+00  0.00000000E+00
  0.00000000E+00  0.00000000E+00  0.00000000E+00
  0.00000000E+00  0.00000000E+00  0.00000000E+00
  0.00000000E+00  0.00000000E+00  0.00000000E+00
  0.00000000E+00  0.00000000E+00  0.00000000E+00
  0.00000000E+00  0.00000000E+00  0.00000000E+00
  0.00000000E+00  0.00000000E+00  0.00000000E+00
  0.00000000E+00  0.00000000E+00  0.00000000E+00
  0.00000000E+00  0.00000000E+00  0.00000000E+00
  0.00000000E+00  0.00000000E+00  0.00000000E+00
  0.00000000E+00  0.00000000E+00  0.00000000E+00
  0.00000000E+00  0.00000000E+00  0.00000000E+00
  0.00000000E+00  0.00000000E+00  0.00000000E+00
  0.00000000E+00  0.00000000E+00  0.00000000E+00
  0.00000000E+00  0.00000000E+00  0.00000000E+00
  0.00000000E+00  0.00000000E+00  0.00000000E+00
  0.00000000E+00  0.00000000E+00  0.00000000E+00
  0.00000000E+00  0.00000000E+00  0.00000000E+00
  0.00000000E+00  0.00000000E+00  0.00000000E+00
  0.00000000E+00  0.00000000E+00  0.00000000E+00
  0.00000000E+00  0.00000000E+00  0.00000000E+00
  0.00000000E+00  0.00000000E+00  0.00000000E+00
  0.00000000E+00  0.00000000E+00  0.00000000E+00
  0.00000000E+00  0.00000000E+00  0.00000000E+00
  0.00000000E+00  0.00000000E+00  0.00000000E+00
  0.00000000E+00  0.00000000E+00  0.00000000E+00
  0.00000000E+00  0.00000000E+00  0.00000000E+00
  0.00000000E+00  0.00000000E+00  0.00000000E+00
  0.00000000E+00  0.00000000E+00  0.00000000E+00
  0.00000000E+00  0.00000000E+00  0.00000000E+00
  0.00000000E+00  0.00000000E+00  0.00000000E+00
  0.00000000E+00  0.00000000E+00  0.00000000E+00
  0.00000000E+00  0.00000000E+00  0.00000000E+00
  0.00000000E+00  0.00000000E+00  0.00000000E+00
  0.00000000E+00  0.00000000E+00  0.00000000E+00
  0.00000000E+00  0.00000000E+00  0.00000000E+00
  0.00000000E+00  0.00000000E+00  0.00000000E+00
  0.00000000E+00  0.00000000E+00  0.00000000E+00
  0.00000000E+00  0.00000000E+00  0.00000000E+00
  0.00000000E+00  0.00000000E+00  0.00000000E+00
  0.00000000E+00  0.00000000E+00  0.00000000E+00
  0.00000000E+00  0.00000000E+00  0.00000000E+00
  0.00000000E+00  0.00000000E+00  0.00000000E+00
  0.00000000E+00  0.00000000E+00  0.00000000E+00
  0.00000000E+00  0.00000000E+00  0.00000000E+00
  0.00000000E+00  0.00000000E+00  0.00000000E+00
  0.00000000E+00  0.00000000E+00  0.00000000E+00
  0.00000000E+00  0.00000000E+00  0.00000000E+00
  0.00000000E+00  0.00000000E+00  0.00000000E+00
  0.00000000E+00  0.00000000E+00  0.00000000E+00
  0.00000000E+00  0.00000000E+00  0.00000000E+00
  0.00000000E+00  0.00000000E+00  0.00000000E+00
  0.00000000E+00  0.00000000E+00  0.00000000E+00
  0.00000000E+00  0.00000000E+00  0.00000000E+00
  0.00000000E+00  0.00000000E+00  0.00000000E+00
  0.00000000E+00  0.00000000E+00  0.00000000E+00
  0.00000000E+00  0.00000000E+00  0.00000000E+00
  0.00000000E+00  0.00000000E+00  0.00000000E+00
  0.00000000E+00  0.00000000E+00  0.00000000E+00
  0.00000000E+00  0.00000000E+00  0.00000000E+00
  0.00000000E+00  0.00000000E+00  0.00000000E+00
  0.00000000E+00  0.00000000E+00  0.00000000E+00
  0.00000000E+00  0.00000000E+00  0.00000000E+00
  0.00000000E+00  0.00000000E+00  0.00000000E+00
  0.00000000E+00  0.00000000E+00  0.00000000E+00
  0.00000000E+00  0.00000000E+00  0.00000000E+00
  0.00000000E+00  0.00000000E+00  0.00000000E+00
  0.00000000E+00  0.00000000E+00  0.00000000E+00
  0.00000000E+00  0.00000000E+00  0.00000000E+00
  0.00000000E+00  0.00000000E+00  0.00000000E+00
  0.00000000E+00  0.00000000E+00  0.00000000E+00
  0.00000000E+00  0.00000000E+00  0.00000000E+00
  0.00000000E+00  0.00000000E+00  0.00000000E+00
  0.00000000E+00  0.00000000E+00  0.00000000E+00
  0.00000000E+00  0.00000000E+00  0.00000000E+00
  0.00000000E+00  0.00000000E+00  0.00000000E+00
  0.00000000E+00  0.00000000E+00  0.00000000E+00
  0.00000000E+00  0.00000000E+00  0.00000000E+00
  0.00000000E+00  0.00000000E+00  0.00000000E+00
  0.00000000E+00  0.00000000E+00  0.00000000E+00
  0.00000000E+00  0.00000000E+00  0.00000000E+00
  0.00000000E+00  0.00000000E+00  0.00000000E+00
  0.00000000E+00  0.00000000E+00  0.00000000E+00
  0.00000000E+00  0.00000000E+00  0.00000000E+00
  0.00000000E+00  0.00000000E+00  0.00000000E+00
  0.00000000E+00  0.00000000E+00  0.00000000E+00
  0.00000000E+00  0.00000000E+00  0.00000000E+00
  0.00000000E+00  0.00000000E+00  0.00000000E+00
  0.00000000E+00  0.00000000E+00  0.00000000E+00
  0.00000000E+00  0.00000000E+00  0.00000000E+00
