Ti27 Pb27 O81                       
   1.00000000000000     
    11.8378881194251235    0.0000000000000000    0.0000000000000000
     0.0000000000000000   11.8378881194251235    0.0000000000000000
     0.0000000000000000    0.0000000000000000   11.8830659889828141
   Pb   Ti   O    O 
    27    27    80     1
Direct
  0.9989817386959150  0.9998348257069207  0.0062737740596100
  0.9895905256416465  0.9991184933431695  0.3444640682576927
  0.0007222579315377  0.9995205440327916  0.6739109375052219
  0.9973732282646515  0.3344883926799100  0.0058071969551888
  0.9943639324835599  0.3354179097530098  0.3414610772352404
  0.0013413603525461  0.3326183367772095  0.6724923923559416
  0.9974340771899902  0.6652399398045253  0.0058013468949426
  0.9947729482925829  0.6640528991409776  0.3413507269134273
  0.0015132338503937  0.6670216866459886  0.6725014315992618
  0.3339362008955346  0.9999262553781089  0.0059951169204894
  0.3431731118116664  0.0000798672589467  0.3442394037565135
  0.3318693183794151  0.9999610116503075  0.6739305601160603
  0.3351467999209524  0.3345043454674341  0.0056772322358658
  0.3383356678109404  0.3356367327929287  0.3413735023101725
  0.3315156623391072  0.3325901700650957  0.6724228123271028
  0.3353753299515986  0.6652731663481990  0.0057368952657783
  0.3384663541960071  0.6641185823070446  0.3414277135421000
  0.3316283302563183  0.6671293743423000  0.6724611698914852
  0.6663730659292952  0.9998997021810742  0.0053158811643992
  0.6665910617022288  0.9999598445618602  0.3383427357943173
  0.6665529386722328  0.9999554111181611  0.6729476567923984
  0.6664270514857221  0.3317296239745290  0.0052394452382023
  0.6664022546720260  0.3323009230698449  0.3392953189072421
  0.6665420898267389  0.3330621211627122  0.6728743159132763
  0.6663833807795666  0.6675896740977377  0.0050268157804364
  0.6662289214915033  0.6673538344654583  0.3390575073399774
  0.6663087218342354  0.6667361976978223  0.6729030033758492
  0.1665238281405916  0.1736754605512903  0.1898699851336221
  0.1664810289752491  0.1655340519899070  0.5194588465119165
  0.1665064870401577  0.1665669657493086  0.8542488782591078
  0.1665422155015744  0.4998836571844937  0.1878156087355196
  0.1665375779265383  0.4998623536961803  0.5195223420219451
  0.1665154387317292  0.4999548054328785  0.8547808424698120
  0.1666044326907582  0.8261361759103463  0.1898177543413859
  0.1665694629772926  0.8342124298602107  0.5194646012980910
  0.1665575396600834  0.8332808586492768  0.8542782850257669
  0.4995043433933973  0.1668106997441083  0.1865573476569706
  0.4999845296671683  0.1666737632578271  0.5213209056045881
  0.4997015305249572  0.1665405724825754  0.8534655191197116
  0.5004847320638650  0.4998815816064742  0.1867331088976295
  0.5000201631273594  0.4999213359602191  0.5212807832348670
  0.5002578333570179  0.4998441036741150  0.8530971588252416
  0.4994975416173779  0.8330479261317663  0.1865424790567984
  0.4999738569161911  0.8332351735047756  0.5212809444275835
  0.4997304083368059  0.8332905340185515  0.8534592008086335
  0.8336589505216779  0.1667603351265446  0.1865929849136339
  0.8331323229568733  0.1666353157209539  0.5212963798326350
  0.8333854905421706  0.1664912020676151  0.8534988032861404
  0.8325861186230055  0.4998688626041481  0.1868161827523492
  0.8330719906983373  0.4999310669814128  0.5212649310380622
  0.8328014327791924  0.4998746819815012  0.8530781726993035
  0.8335467333828248  0.8328897256645765  0.1865137498395460
  0.8330127429866070  0.8330312860645199  0.5213351500739772
  0.8333501690041929  0.8332967695982787  0.8535132922859522
  0.1667426373526691  0.1587187207682212  0.0325346281337058
  0.1668095662000903  0.1542837919790602  0.3609872956064512
  0.1668200964152740  0.1695104084071053  0.6967923360641227
  0.1667195634370985  0.4999774654091931  0.0308242868106690
  0.1666695118471464  0.5000310522038821  0.3629722956460519
  0.1666566519732602  0.5000264029299833  0.6969226189924732
  0.1666581382418466  0.8412036005554915  0.0325176745206834
  0.1665666447578801  0.8458116505639680  0.3609665368639576
  0.1666333880274740  0.8304832182569095  0.6967745757184741
  0.5014039503360497  0.1675306698712205  0.0294841147348852
  0.4982787164537156  0.1648929509845307  0.3634346132059305
  0.4998987244811452  0.1667203829431887  0.6961435757353026
  0.4992347367924052  0.4999985494549903  0.0297919215767516
  0.4969719632589390  0.5000644013784743  0.3634428648139779
  0.5007119472008879  0.5000131836426807  0.6959990307187076
  0.5013524546538551  0.8323480910954745  0.0294728417738410
  0.4983058994455987  0.8349176411566825  0.3634166830868278
  0.4999279709899888  0.8331166613092217  0.6961387699085558
  0.8320002873794374  0.1676126308085829  0.0294978419858104
  0.8350509900745998  0.1650003943176840  0.3634025640409779
  0.8334334483087581  0.1667443551390350  0.6961587618893774
  0.8341424246761203  0.4999871894654887  0.0298313055159465
  0.8364987508696100  0.4998891867367422  0.3634408171637613
  0.8327198607816588  0.4999361599890583  0.6959999400811002
  0.8320802580895093  0.8323529064197915  0.0294785900557563
  0.8352196150359430  0.8353241386651606  0.3634143884760258
  0.8335679044721761  0.8333256633993876  0.6961329810968181
  0.1666484975591324  0.9999328090655736  0.5429340351647168
  0.1667393596769893  0.9999458855555396  0.8680005295004060
  0.1668362684953927  0.3342461686324589  0.2057320015151500
  0.1667149940892259  0.3322471947025485  0.5347375532093105
  0.1666580792853289  0.3328410819242737  0.8741326653563628
  0.1666073965659856  0.6656273816257928  0.2057477446374786
  0.1666126243646049  0.6676497234666215  0.5347031318986518
  0.1666126776938854  0.6670650568900978  0.8741145612006124
  0.5001922276504142  0.9999281492251042  0.2037296600200767
  0.4987856966633722  0.9999429312465046  0.5371149171263655
  0.5005794647286484  0.9999234393759948  0.8710001867246778
  0.5005332590433292  0.3334550109596235  0.2057452955282470
  0.4992664403553957  0.3331589351237406  0.5368444153415152
  0.4997229041569968  0.3334301751135311  0.8709754987025180
  0.5005651115083956  0.6664202754647928  0.2057188452589935
  0.4992764005944141  0.6667422758077850  0.5368975773998583
  0.4997328925393179  0.6664002544699411  0.8709594893296360
  0.8331562637912090  0.9999213241315590  0.2036352480200528
  0.8346274117381987  0.9999391240271046  0.5370944471259462
  0.8326903041924634  0.9999332481690539  0.8710396617729911
  0.8326144543005873  0.3334569588869322  0.2057334928263012
  0.8341221002012870  0.3331536554618697  0.5368427212493518
  0.8335376050499946  0.3334327582238931  0.8709758032865307
  0.8326998603492672  0.6663974403172636  0.2058045444579884
  0.8341536106918068  0.6667417475902351  0.5368089959607313
  0.8335640683479442  0.6664124888116942  0.8709306369045816
  0.9997399568611505  0.1678771508217338  0.2041172478679751
  0.0004206963580585  0.1660522246055133  0.5374444909339788
  0.9999156123944827  0.1666493471262036  0.8718509412076036
  0.9997055519358803  0.4999146832923433  0.2047435040145769
  0.0002623045177618  0.4999757001702749  0.5380556113734039
  0.9998832858568324  0.4999574969786235  0.8714558654448901
  0.9997271796229660  0.8322756518038872  0.2042121532045042
  0.0004107100505823  0.8340870088676811  0.5373527262403121
  0.9999228741783533  0.8333157063455404  0.8718379069627844
  0.3335095417761905  0.1675307844050607  0.2042450474113782
  0.3328267306998064  0.1659248252082365  0.5374108632263247
  0.3333049904813725  0.1666377418938139  0.8718499745706049
  0.3335173166145504  0.5000179451373934  0.2048189734000229
  0.3329925498833319  0.5000097926124762  0.5380187242736373
  0.3333114574740349  0.4999593537028287  0.8714570902068590
  0.3334789475295780  0.8322577879491164  0.2042259534155655
  0.3328068706261193  0.8339504944556660  0.5373961862784401
  0.3333030391086029  0.8332371690792209  0.8718215686652391
  0.6666113389874865  0.1668380351028004  0.2058828729861751
  0.6666276750414214  0.1665136782421502  0.5375215480563971
  0.6665993456765873  0.1672053742970292  0.8701217251032834
  0.6665854267569734  0.4999663176975457  0.2061719536001603
  0.6666341700497628  0.4999807143929726  0.5366753120688106
  0.6666011533188785  0.4999506760422808  0.8710383129570997
  0.6666194673434588  0.8330638739151823  0.2059006495886640
  0.6666332015155281  0.8334147174020117  0.5375344020013084
  0.6666134652354393  0.8326467638703512  0.8700850569337316
  0.1665698617171812  0.9999354100233717  0.1973790892712181
 
  0.00000000E+00  0.00000000E+00  0.00000000E+00
  0.00000000E+00  0.00000000E+00  0.00000000E+00
  0.00000000E+00  0.00000000E+00  0.00000000E+00
  0.00000000E+00  0.00000000E+00  0.00000000E+00
  0.00000000E+00  0.00000000E+00  0.00000000E+00
  0.00000000E+00  0.00000000E+00  0.00000000E+00
  0.00000000E+00  0.00000000E+00  0.00000000E+00
  0.00000000E+00  0.00000000E+00  0.00000000E+00
  0.00000000E+00  0.00000000E+00  0.00000000E+00
  0.00000000E+00  0.00000000E+00  0.00000000E+00
  0.00000000E+00  0.00000000E+00  0.00000000E+00
  0.00000000E+00  0.00000000E+00  0.00000000E+00
  0.00000000E+00  0.00000000E+00  0.00000000E+00
  0.00000000E+00  0.00000000E+00  0.00000000E+00
  0.00000000E+00  0.00000000E+00  0.00000000E+00
  0.00000000E+00  0.00000000E+00  0.00000000E+00
  0.00000000E+00  0.00000000E+00  0.00000000E+00
  0.00000000E+00  0.00000000E+00  0.00000000E+00
  0.00000000E+00  0.00000000E+00  0.00000000E+00
  0.00000000E+00  0.00000000E+00  0.00000000E+00
  0.00000000E+00  0.00000000E+00  0.00000000E+00
  0.00000000E+00  0.00000000E+00  0.00000000E+00
  0.00000000E+00  0.00000000E+00  0.00000000E+00
  0.00000000E+00  0.00000000E+00  0.00000000E+00
  0.00000000E+00  0.00000000E+00  0.00000000E+00
  0.00000000E+00  0.00000000E+00  0.00000000E+00
  0.00000000E+00  0.00000000E+00  0.00000000E+00
  0.00000000E+00  0.00000000E+00  0.00000000E+00
  0.00000000E+00  0.00000000E+00  0.00000000E+00
  0.00000000E+00  0.00000000E+00  0.00000000E+00
  0.00000000E+00  0.00000000E+00  0.00000000E+00
  0.00000000E+00  0.00000000E+00  0.00000000E+00
  0.00000000E+00  0.00000000E+00  0.00000000E+00
  0.00000000E+00  0.00000000E+00  0.00000000E+00
  0.00000000E+00  0.00000000E+00  0.00000000E+00
  0.00000000E+00  0.00000000E+00  0.00000000E+00
  0.00000000E+00  0.00000000E+00  0.00000000E+00
  0.00000000E+00  0.00000000E+00  0.00000000E+00
  0.00000000E+00  0.00000000E+00  0.00000000E+00
  0.00000000E+00  0.00000000E+00  0.00000000E+00
  0.00000000E+00  0.00000000E+00  0.00000000E+00
  0.00000000E+00  0.00000000E+00  0.00000000E+00
  0.00000000E+00  0.00000000E+00  0.00000000E+00
  0.00000000E+00  0.00000000E+00  0.00000000E+00
  0.00000000E+00  0.00000000E+00  0.00000000E+00
  0.00000000E+00  0.00000000E+00  0.00000000E+00
  0.00000000E+00  0.00000000E+00  0.00000000E+00
  0.00000000E+00  0.00000000E+00  0.00000000E+00
  0.00000000E+00  0.00000000E+00  0.00000000E+00
  0.00000000E+00  0.00000000E+00  0.00000000E+00
  0.00000000E+00  0.00000000E+00  0.00000000E+00
  0.00000000E+00  0.00000000E+00  0.00000000E+00
  0.00000000E+00  0.00000000E+00  0.00000000E+00
  0.00000000E+00  0.00000000E+00  0.00000000E+00
  0.00000000E+00  0.00000000E+00  0.00000000E+00
  0.00000000E+00  0.00000000E+00  0.00000000E+00
  0.00000000E+00  0.00000000E+00  0.00000000E+00
  0.00000000E+00  0.00000000E+00  0.00000000E+00
  0.00000000E+00  0.00000000E+00  0.00000000E+00
  0.00000000E+00  0.00000000E+00  0.00000000E+00
  0.00000000E+00  0.00000000E+00  0.00000000E+00
  0.00000000E+00  0.00000000E+00  0.00000000E+00
  0.00000000E+00  0.00000000E+00  0.00000000E+00
  0.00000000E+00  0.00000000E+00  0.00000000E+00
  0.00000000E+00  0.00000000E+00  0.00000000E+00
  0.00000000E+00  0.00000000E+00  0.00000000E+00
  0.00000000E+00  0.00000000E+00  0.00000000E+00
  0.00000000E+00  0.00000000E+00  0.00000000E+00
  0.00000000E+00  0.00000000E+00  0.00000000E+00
  0.00000000E+00  0.00000000E+00  0.00000000E+00
  0.00000000E+00  0.00000000E+00  0.00000000E+00
  0.00000000E+00  0.00000000E+00  0.00000000E+00
  0.00000000E+00  0.00000000E+00  0.00000000E+00
  0.00000000E+00  0.00000000E+00  0.00000000E+00
  0.00000000E+00  0.00000000E+00  0.00000000E+00
  0.00000000E+00  0.00000000E+00  0.00000000E+00
  0.00000000E+00  0.00000000E+00  0.00000000E+00
  0.00000000E+00  0.00000000E+00  0.00000000E+00
  0.00000000E+00  0.00000000E+00  0.00000000E+00
  0.00000000E+00  0.00000000E+00  0.00000000E+00
  0.00000000E+00  0.00000000E+00  0.00000000E+00
  0.00000000E+00  0.00000000E+00  0.00000000E+00
  0.00000000E+00  0.00000000E+00  0.00000000E+00
  0.00000000E+00  0.00000000E+00  0.00000000E+00
  0.00000000E+00  0.00000000E+00  0.00000000E+00
  0.00000000E+00  0.00000000E+00  0.00000000E+00
  0.00000000E+00  0.00000000E+00  0.00000000E+00
  0.00000000E+00  0.00000000E+00  0.00000000E+00
  0.00000000E+00  0.00000000E+00  0.00000000E+00
  0.00000000E+00  0.00000000E+00  0.00000000E+00
  0.00000000E+00  0.00000000E+00  0.00000000E+00
  0.00000000E+00  0.00000000E+00  0.00000000E+00
  0.00000000E+00  0.00000000E+00  0.00000000E+00
  0.00000000E+00  0.00000000E+00  0.00000000E+00
  0.00000000E+00  0.00000000E+00  0.00000000E+00
  0.00000000E+00  0.00000000E+00  0.00000000E+00
  0.00000000E+00  0.00000000E+00  0.00000000E+00
  0.00000000E+00  0.00000000E+00  0.00000000E+00
  0.00000000E+00  0.00000000E+00  0.00000000E+00
  0.00000000E+00  0.00000000E+00  0.00000000E+00
  0.00000000E+00  0.00000000E+00  0.00000000E+00
  0.00000000E+00  0.00000000E+00  0.00000000E+00
  0.00000000E+00  0.00000000E+00  0.00000000E+00
  0.00000000E+00  0.00000000E+00  0.00000000E+00
  0.00000000E+00  0.00000000E+00  0.00000000E+00
  0.00000000E+00  0.00000000E+00  0.00000000E+00
  0.00000000E+00  0.00000000E+00  0.00000000E+00
  0.00000000E+00  0.00000000E+00  0.00000000E+00
  0.00000000E+00  0.00000000E+00  0.00000000E+00
  0.00000000E+00  0.00000000E+00  0.00000000E+00
  0.00000000E+00  0.00000000E+00  0.00000000E+00
  0.00000000E+00  0.00000000E+00  0.00000000E+00
  0.00000000E+00  0.00000000E+00  0.00000000E+00
  0.00000000E+00  0.00000000E+00  0.00000000E+00
  0.00000000E+00  0.00000000E+00  0.00000000E+00
  0.00000000E+00  0.00000000E+00  0.00000000E+00
  0.00000000E+00  0.00000000E+00  0.00000000E+00
  0.00000000E+00  0.00000000E+00  0.00000000E+00
  0.00000000E+00  0.00000000E+00  0.00000000E+00
  0.00000000E+00  0.00000000E+00  0.00000000E+00
  0.00000000E+00  0.00000000E+00  0.00000000E+00
  0.00000000E+00  0.00000000E+00  0.00000000E+00
  0.00000000E+00  0.00000000E+00  0.00000000E+00
  0.00000000E+00  0.00000000E+00  0.00000000E+00
  0.00000000E+00  0.00000000E+00  0.00000000E+00
  0.00000000E+00  0.00000000E+00  0.00000000E+00
  0.00000000E+00  0.00000000E+00  0.00000000E+00
  0.00000000E+00  0.00000000E+00  0.00000000E+00
  0.00000000E+00  0.00000000E+00  0.00000000E+00
  0.00000000E+00  0.00000000E+00  0.00000000E+00
  0.00000000E+00  0.00000000E+00  0.00000000E+00
  0.00000000E+00  0.00000000E+00  0.00000000E+00
  0.00000000E+00  0.00000000E+00  0.00000000E+00
  0.00000000E+00  0.00000000E+00  0.00000000E+00
  0.00000000E+00  0.00000000E+00  0.00000000E+00
