Ho1 Ti27 Pb27 O80                       
   1.00000000000000     
    11.8378881194251235    0.0000000000000000    0.0000000000000000
     0.0000000000000000   11.8378881194251235    0.0000000000000000
     0.0000000000000000    0.0000000000000000   11.8830659889828141
   Pb   Ti   O    Ho
    27    27    80     1
Direct
  0.9981103065455150  0.9942206755281128  0.0066946477085696
  0.9972579002100508  0.9958913825589424  0.3412843878090029
  0.9983679175984475  0.9987360577765498  0.6729413460164461
  0.9981370252801522  0.3390429950854635  0.0067160034957631
  0.9972586226292437  0.3372576648014253  0.3412376873786959
  0.9984658951273545  0.3344217059266121  0.6728366452110801
  0.0010348772038629  0.6665462374532856  0.0062964588378672
  0.0013430742738915  0.6665819740587522  0.3399218977412555
  0.0011091889666724  0.6665613547546303  0.6727534593759306
  0.3351357331464177  0.9941994367795517  0.0067152842517889
  0.3359832891031312  0.9958579150120811  0.3412552448355731
  0.3349101307205353  0.9987267495049597  0.6729313843189756
  0.3351684367055538  0.3390358528199018  0.0067374560956152
  0.3360316715252109  0.3372968093997032  0.3412520809107977
  0.3347976510913417  0.3344104539195289  0.6728410035639224
  0.3322751994923922  0.6665783483706412  0.0063143918464398
  0.3319100183278317  0.6666303232427203  0.3399310499126358
  0.3321176699873210  0.6665903976192256  0.6727777168402659
  0.6666112399431312  0.0012937462019731  0.0063958317035437
  0.6666255581064984  0.9998110569968651  0.3389611328582849
  0.6666384722464798  0.0014055489528869  0.6729602583702152
  0.6666319004153372  0.3319414544291207  0.0063865465345899
  0.6666431775121808  0.3332903744660118  0.3389833203248525
  0.6665693400590735  0.3317914448286132  0.6729050791799923
  0.6666471534385112  0.6666121369088682  0.0053468196365434
  0.6666469441715454  0.6666264243435058  0.3389435542901347
  0.6666442252667268  0.6666296120467397  0.6718873818606860
  0.1666320004235700  0.1665721837146181  0.1984777620114094
  0.1666268040679315  0.1665791727904732  0.5226790394886627
  0.1666310181651393  0.1665918776815306  0.8514600927358800
  0.1666319679549550  0.4994565584673277  0.1875218050877276
  0.1666237362031653  0.4995855207940535  0.5207064255007943
  0.1666492096010389  0.4995941757281274  0.8533449229746403
  0.1666104265310561  0.8337238081810540  0.1874996290527354
  0.1666184529172635  0.8336223871592571  0.5207305225946202
  0.1666343772552743  0.8335827444150071  0.8533414009017654
  0.4998598778911853  0.1665780241386293  0.1870417762104689
  0.4991952844396166  0.1665578938305098  0.5202072293880982
  0.4991993656106458  0.1666223891147210  0.8546041859610031
  0.5002399665530204  0.5003258882925221  0.1869347153550758
  0.5003474853271016  0.5001424941686216  0.5204304074393465
  0.5005003049720739  0.5003055583002725  0.8533018475280246
  0.5002300667714601  0.8328518026868670  0.1869183086146345
  0.5003559722942360  0.8329940614724958  0.5204448026240324
  0.5004945487991231  0.8328805642793214  0.8533234850148665
  0.8333995555530411  0.1665715402127536  0.1870339406351722
  0.8340487537219862  0.1665720685597021  0.5202114565574967
  0.8340591395213712  0.1666280517616203  0.8546009494526179
  0.8330074182772972  0.5003183807058360  0.1869346568247947
  0.8328864578023333  0.5001280490237739  0.5204366661158966
  0.8327902773913878  0.5002977655459449  0.8533000268504245
  0.8330241407421669  0.8328597930701194  0.1869235146347232
  0.8328954759010712  0.8330014639617436  0.5204516598811718
  0.8327924019750766  0.8328828885103116  0.8533280628042710
  0.1666201421707861  0.1665649873664826  0.3640819478589600
  0.1666257455395912  0.1666216872094571  0.6959843894811044
  0.1666202640169411  0.4991649431096243  0.0298974566938101
  0.1666320041134767  0.5008015538424883  0.3632017343540070
  0.1666359553031005  0.5014783431753099  0.6961760558400437
  0.1666409123222107  0.8340004428620251  0.0298886219044169
  0.1666432695055675  0.8323832691362045  0.3632100516598964
  0.1666422742367452  0.8316908621558069  0.6961835341504852
  0.5041388399485099  0.1665691803898840  0.0298550787483250
  0.4961249437265154  0.1665811496571844  0.3625386500202857
  0.4978478783050834  0.1665894252211978  0.6970358881674599
  0.4984546792796285  0.4989144611174537  0.0296114780111793
  0.4989710427670850  0.4982833862809222  0.3628887099765965
  0.4997223681040587  0.4995434768923693  0.6961449924265215
  0.4984466828287288  0.8342637104037239  0.0296031976057747
  0.4989970156634638  0.8348667203445960  0.3628957809613989
  0.4996932879673801  0.8336633332449485  0.6961505139269141
  0.8291296749132063  0.1665661696959156  0.0298535025059081
  0.8371333607946935  0.1665769390046546  0.3625460348193513
  0.8354366981132968  0.1665766189167359  0.6970348388321194
  0.8348151196067085  0.4989260820698923  0.0296120403191433
  0.8342798249945603  0.4983083643514940  0.3628903947396080
  0.8335592843561658  0.4995626000071501  0.6961471012164898
  0.8348056107918365  0.8342584669471825  0.0296057445667969
  0.8342543232601480  0.8348521753928105  0.3628991060745058
  0.8335632860037391  0.8336538203310396  0.6961554200624465
  0.1666253326950190  0.9998858156711982  0.2061597909709815
  0.1666348698828988  0.9999081692560268  0.5381986387786439
  0.1666334757692071  0.9998323879628598  0.8708048660014505
  0.1666204204172029  0.3332733754594559  0.2061598129449807
  0.1666357409519093  0.3332751631067802  0.5381714291023610
  0.1666277248618823  0.3333530571889224  0.8708319416272484
  0.1666267873067553  0.6665876804650771  0.2042906090932833
  0.1666323749559596  0.6665927157145576  0.5377131023492370
  0.1666375421381307  0.6665867013381236  0.8719121923149608
  0.4997188295041500  0.9999853195370370  0.2041014265320299
  0.4997459601227579  0.0000661655696887  0.5378142702122340
  0.4988194814166485  0.9999018811287494  0.8713252078571039
  0.4997241426967727  0.3331735728450695  0.2040958737851864
  0.4997438484673919  0.3330960151068443  0.5378020993710972
  0.4988436622270346  0.3332950977257503  0.8713442666678982
  0.5005887837385889  0.6665891769425598  0.2046953845833852
  0.5002545668880783  0.6665813770434688  0.5371735249787928
  0.5006735268017700  0.6665954149276614  0.8714631371879756
  0.8335431229788749  0.9999850570076840  0.2041138174832073
  0.8335215238384255  0.0000664693901828  0.5378185350573098
  0.8344500216320611  0.9999036622329105  0.8713256780326565
  0.8335344829646251  0.3331715086927890  0.2041052916689177
  0.8335204629414495  0.3330980838899072  0.5378050462617228
  0.8344371823453324  0.3332965441509375  0.8713433298820688
  0.8326724272421058  0.6665870850720285  0.2046902565210053
  0.8330151659041504  0.6665796315707021  0.5371798986580041
  0.8326026303475613  0.6665942600888779  0.8714601549969964
  0.0014896934685601  0.1665765631868504  0.1980860532129490
  0.0003633735188188  0.1665950658089556  0.5386013722319940
  0.0016229127222108  0.1665830443119163  0.8762331030057816
  0.9998832979886246  0.4998453042121688  0.2045280439370832
  0.9998468374033098  0.4995613582957155  0.5373504005117351
  0.9998677675834942  0.5002964206808131  0.8711619573979064
  0.9998865856537473  0.8333299697773998  0.2045425986444675
  0.9998431909323445  0.8336207975707107  0.5373461603614098
  0.9998673887544361  0.8329053022061139  0.8711444946219080
  0.3317589505405747  0.1665773210056317  0.1980643465306500
  0.3328955527473782  0.1666012065141184  0.5386051427081847
  0.3316419959844943  0.1665912291414705  0.8762384501044315
  0.3333747786903559  0.4998437177776414  0.2045217605483247
  0.3334115622762912  0.4995593653924599  0.5373514652352094
  0.3334101743529170  0.5002913478055638  0.8711629855039077
  0.3333695027930067  0.8333296593232673  0.2045338751527584
  0.3334166009537896  0.8336183031484490  0.5373441622601849
  0.3334031290603654  0.8328962698524721  0.8711350000909340
  0.6666348751640383  0.1665676264024110  0.2070613681533374
  0.6666306325260675  0.1666004978265641  0.5377807530873772
  0.6666324124184173  0.1665854279280420  0.8678963486864568
  0.6666309711162393  0.4997241786558873  0.2044680957105764
  0.6666272353739968  0.4998812064406934  0.5374578778671708
  0.6666416918699738  0.4996874862402216  0.8716319904540472
  0.6666312677498241  0.8334434295607461  0.2044546683489072
  0.6666308546653475  0.8332770444117478  0.5374811235944250
  0.6666358538248888  0.8335184907376284  0.8716206294281110
  0.1666184010384744  0.1665659961180100  0.0312366676156253
 
  0.00000000E+00  0.00000000E+00  0.00000000E+00
  0.00000000E+00  0.00000000E+00  0.00000000E+00
  0.00000000E+00  0.00000000E+00  0.00000000E+00
  0.00000000E+00  0.00000000E+00  0.00000000E+00
  0.00000000E+00  0.00000000E+00  0.00000000E+00
  0.00000000E+00  0.00000000E+00  0.00000000E+00
  0.00000000E+00  0.00000000E+00  0.00000000E+00
  0.00000000E+00  0.00000000E+00  0.00000000E+00
  0.00000000E+00  0.00000000E+00  0.00000000E+00
  0.00000000E+00  0.00000000E+00  0.00000000E+00
  0.00000000E+00  0.00000000E+00  0.00000000E+00
  0.00000000E+00  0.00000000E+00  0.00000000E+00
  0.00000000E+00  0.00000000E+00  0.00000000E+00
  0.00000000E+00  0.00000000E+00  0.00000000E+00
  0.00000000E+00  0.00000000E+00  0.00000000E+00
  0.00000000E+00  0.00000000E+00  0.00000000E+00
  0.00000000E+00  0.00000000E+00  0.00000000E+00
  0.00000000E+00  0.00000000E+00  0.00000000E+00
  0.00000000E+00  0.00000000E+00  0.00000000E+00
  0.00000000E+00  0.00000000E+00  0.00000000E+00
  0.00000000E+00  0.00000000E+00  0.00000000E+00
  0.00000000E+00  0.00000000E+00  0.00000000E+00
  0.00000000E+00  0.00000000E+00  0.00000000E+00
  0.00000000E+00  0.00000000E+00  0.00000000E+00
  0.00000000E+00  0.00000000E+00  0.00000000E+00
  0.00000000E+00  0.00000000E+00  0.00000000E+00
  0.00000000E+00  0.00000000E+00  0.00000000E+00
  0.00000000E+00  0.00000000E+00  0.00000000E+00
  0.00000000E+00  0.00000000E+00  0.00000000E+00
  0.00000000E+00  0.00000000E+00  0.00000000E+00
  0.00000000E+00  0.00000000E+00  0.00000000E+00
  0.00000000E+00  0.00000000E+00  0.00000000E+00
  0.00000000E+00  0.00000000E+00  0.00000000E+00
  0.00000000E+00  0.00000000E+00  0.00000000E+00
  0.00000000E+00  0.00000000E+00  0.00000000E+00
  0.00000000E+00  0.00000000E+00  0.00000000E+00
  0.00000000E+00  0.00000000E+00  0.00000000E+00
  0.00000000E+00  0.00000000E+00  0.00000000E+00
  0.00000000E+00  0.00000000E+00  0.00000000E+00
  0.00000000E+00  0.00000000E+00  0.00000000E+00
  0.00000000E+00  0.00000000E+00  0.00000000E+00
  0.00000000E+00  0.00000000E+00  0.00000000E+00
  0.00000000E+00  0.00000000E+00  0.00000000E+00
  0.00000000E+00  0.00000000E+00  0.00000000E+00
  0.00000000E+00  0.00000000E+00  0.00000000E+00
  0.00000000E+00  0.00000000E+00  0.00000000E+00
  0.00000000E+00  0.00000000E+00  0.00000000E+00
  0.00000000E+00  0.00000000E+00  0.00000000E+00
  0.00000000E+00  0.00000000E+00  0.00000000E+00
  0.00000000E+00  0.00000000E+00  0.00000000E+00
  0.00000000E+00  0.00000000E+00  0.00000000E+00
  0.00000000E+00  0.00000000E+00  0.00000000E+00
  0.00000000E+00  0.00000000E+00  0.00000000E+00
  0.00000000E+00  0.00000000E+00  0.00000000E+00
  0.00000000E+00  0.00000000E+00  0.00000000E+00
  0.00000000E+00  0.00000000E+00  0.00000000E+00
  0.00000000E+00  0.00000000E+00  0.00000000E+00
  0.00000000E+00  0.00000000E+00  0.00000000E+00
  0.00000000E+00  0.00000000E+00  0.00000000E+00
  0.00000000E+00  0.00000000E+00  0.00000000E+00
  0.00000000E+00  0.00000000E+00  0.00000000E+00
  0.00000000E+00  0.00000000E+00  0.00000000E+00
  0.00000000E+00  0.00000000E+00  0.00000000E+00
  0.00000000E+00  0.00000000E+00  0.00000000E+00
  0.00000000E+00  0.00000000E+00  0.00000000E+00
  0.00000000E+00  0.00000000E+00  0.00000000E+00
  0.00000000E+00  0.00000000E+00  0.00000000E+00
  0.00000000E+00  0.00000000E+00  0.00000000E+00
  0.00000000E+00  0.00000000E+00  0.00000000E+00
  0.00000000E+00  0.00000000E+00  0.00000000E+00
  0.00000000E+00  0.00000000E+00  0.00000000E+00
  0.00000000E+00  0.00000000E+00  0.00000000E+00
  0.00000000E+00  0.00000000E+00  0.00000000E+00
  0.00000000E+00  0.00000000E+00  0.00000000E+00
  0.00000000E+00  0.00000000E+00  0.00000000E+00
  0.00000000E+00  0.00000000E+00  0.00000000E+00
  0.00000000E+00  0.00000000E+00  0.00000000E+00
  0.00000000E+00  0.00000000E+00  0.00000000E+00
  0.00000000E+00  0.00000000E+00  0.00000000E+00
  0.00000000E+00  0.00000000E+00  0.00000000E+00
  0.00000000E+00  0.00000000E+00  0.00000000E+00
  0.00000000E+00  0.00000000E+00  0.00000000E+00
  0.00000000E+00  0.00000000E+00  0.00000000E+00
  0.00000000E+00  0.00000000E+00  0.00000000E+00
  0.00000000E+00  0.00000000E+00  0.00000000E+00
  0.00000000E+00  0.00000000E+00  0.00000000E+00
  0.00000000E+00  0.00000000E+00  0.00000000E+00
  0.00000000E+00  0.00000000E+00  0.00000000E+00
  0.00000000E+00  0.00000000E+00  0.00000000E+00
  0.00000000E+00  0.00000000E+00  0.00000000E+00
  0.00000000E+00  0.00000000E+00  0.00000000E+00
  0.00000000E+00  0.00000000E+00  0.00000000E+00
  0.00000000E+00  0.00000000E+00  0.00000000E+00
  0.00000000E+00  0.00000000E+00  0.00000000E+00
  0.00000000E+00  0.00000000E+00  0.00000000E+00
  0.00000000E+00  0.00000000E+00  0.00000000E+00
  0.00000000E+00  0.00000000E+00  0.00000000E+00
  0.00000000E+00  0.00000000E+00  0.00000000E+00
  0.00000000E+00  0.00000000E+00  0.00000000E+00
  0.00000000E+00  0.00000000E+00  0.00000000E+00
  0.00000000E+00  0.00000000E+00  0.00000000E+00
  0.00000000E+00  0.00000000E+00  0.00000000E+00
  0.00000000E+00  0.00000000E+00  0.00000000E+00
  0.00000000E+00  0.00000000E+00  0.00000000E+00
  0.00000000E+00  0.00000000E+00  0.00000000E+00
  0.00000000E+00  0.00000000E+00  0.00000000E+00
  0.00000000E+00  0.00000000E+00  0.00000000E+00
  0.00000000E+00  0.00000000E+00  0.00000000E+00
  0.00000000E+00  0.00000000E+00  0.00000000E+00
  0.00000000E+00  0.00000000E+00  0.00000000E+00
  0.00000000E+00  0.00000000E+00  0.00000000E+00
  0.00000000E+00  0.00000000E+00  0.00000000E+00
  0.00000000E+00  0.00000000E+00  0.00000000E+00
  0.00000000E+00  0.00000000E+00  0.00000000E+00
  0.00000000E+00  0.00000000E+00  0.00000000E+00
  0.00000000E+00  0.00000000E+00  0.00000000E+00
  0.00000000E+00  0.00000000E+00  0.00000000E+00
  0.00000000E+00  0.00000000E+00  0.00000000E+00
  0.00000000E+00  0.00000000E+00  0.00000000E+00
  0.00000000E+00  0.00000000E+00  0.00000000E+00
  0.00000000E+00  0.00000000E+00  0.00000000E+00
  0.00000000E+00  0.00000000E+00  0.00000000E+00
  0.00000000E+00  0.00000000E+00  0.00000000E+00
  0.00000000E+00  0.00000000E+00  0.00000000E+00
  0.00000000E+00  0.00000000E+00  0.00000000E+00
  0.00000000E+00  0.00000000E+00  0.00000000E+00
  0.00000000E+00  0.00000000E+00  0.00000000E+00
  0.00000000E+00  0.00000000E+00  0.00000000E+00
  0.00000000E+00  0.00000000E+00  0.00000000E+00
  0.00000000E+00  0.00000000E+00  0.00000000E+00
  0.00000000E+00  0.00000000E+00  0.00000000E+00
  0.00000000E+00  0.00000000E+00  0.00000000E+00
  0.00000000E+00  0.00000000E+00  0.00000000E+00
  0.00000000E+00  0.00000000E+00  0.00000000E+00
  0.00000000E+00  0.00000000E+00  0.00000000E+00
