# algorithm
ALGO  =  All
TIME  =  0.15

# accuracy
PREC   =  Normal
LREAL  =  Auto
EDIFF  =  1e-05
ENCUT  =  400.0
LASPH  =  True
NELM   =  200

# ionic relaxation
ISIF    =  2
IBRION  =  2
EDIFFG  =  -0.03
NSW     =  20

# occupation
ISMEAR  =  0
SIGMA   =  0.1

# spin
ISPIN  =  1

# IO control
LWAVE   =  F
LCHARG  =  F

# analyzer
LORBIT  =  10

# dft parameter
GGA  =  Ps

# hubbard u
LDAU       =  True
LDAUTYPE   =  2
LDAUPRINT  =  2
LDAUL      =  2 1
LDAUU      =  5.0 6.0

# parallel
KPAR  =  1
