Ti36 O72                                
   1.00000000000000     
    11.6329049503000004    0.0000000000000000    0.0000000000000000
     0.0000000000000000   11.6329049503000004    0.0000000000000000
     0.0000000000000000    0.0000000000000000    9.5695023413999998
   Ti   O 
    36    72
Direct
 -0.0000000000000000  0.0000000000000000 -0.0000000000000000
 -0.0000000000000000  0.3333333332999970 -0.0000000000000000
 -0.0000000000000000  0.6666666667000030 -0.0000000000000000
  0.3333333332999970  0.0000000000000000 -0.0000000000000000
  0.3333333332999970  0.3333333332999970 -0.0000000000000000
  0.3333333332999970  0.6666666667000030 -0.0000000000000000
  0.6666666667000030 -0.0000000000000000 -0.0000000000000000
  0.6666666667000030  0.3333333332999970 -0.0000000000000000
  0.6666666667000030  0.6666666667000030 -0.0000000000000000
  0.1666666667000030  0.1666666667000030  0.5000000000000000
  0.1666666667000030  0.5000000000000000  0.5000000000000000
  0.1666666667000030  0.8333333332999970  0.5000000000000000
  0.5000000000000000  0.1666666667000030  0.5000000000000000
  0.5000000000000000  0.5000000000000000  0.5000000000000000
  0.5000000000000000  0.8333333332999970  0.5000000000000000
  0.8333333332999970  0.1666666667000030  0.5000000000000000
  0.8333333332999970  0.5000000000000000  0.5000000000000000
  0.8333333332999970  0.8333333332999970  0.5000000000000000
  0.0000000000000000  0.1666666667000030  0.2500000000000000
  0.0000000000000000  0.5000000000000000  0.2500000000000000
  0.0000000000000000  0.8333333332999970  0.2500000000000000
  0.3333333332999970  0.1666666667000030  0.2500000000000000
  0.3333333332999970  0.5000000000000000  0.2500000000000000
  0.3333333332999970  0.8333333332999970  0.2500000000000000
  0.6666666667000030  0.1666666667000030  0.2500000000000000
  0.6666666667000030  0.5000000000000000  0.2500000000000000
  0.6666666667000030  0.8333333332999970  0.2500000000000000
  0.1666666667000030  0.3333333332999970  0.7500000000000000
  0.1666666667000030  0.6666666667000030  0.7500000000000000
  0.1666666667000030 -0.0000000000000000  0.7500000000000000
  0.5000000000000000  0.3333333332999970  0.7500000000000000
  0.5000000000000000  0.6666666667000030  0.7500000000000000
  0.5000000000000000 -0.0000000000000000  0.7500000000000000
  0.8333333332999970  0.3333333332999970  0.7500000000000000
  0.8333333332999970  0.6666666667000030  0.7500000000000000
  0.8333333332999970  0.0000000000000000  0.7500000000000000
  0.3333333332999970  0.1666666667000030  0.4589210208792188
  0.3333333332999970  0.5000000000000000  0.4589210208792188
  0.3333333332999970  0.8333333332999970  0.4589210208792188
  0.6666666667000030  0.1666666667000030  0.4589210208792188
  0.6666666667000030  0.5000000000000000  0.4589210208792188
  0.6666666667000030  0.8333333332999970  0.4589210208792188
 -0.0000000000000000  0.1666666667000030  0.4589210208792188
 -0.0000000000000000  0.5000000000000000  0.4589210208792188
 -0.0000000000000000  0.8333333332999970  0.4589210208792188
  0.1666666667000030 -0.0000000000000000  0.9589210208792117
  0.1666666667000030  0.3333333332999970  0.9589210208792117
  0.1666666667000030  0.6666666667000030  0.9589210208792117
  0.5000000000000000  0.0000000000000000  0.9589210208792117
  0.5000000000000000  0.3333333332999970  0.9589210208792117
  0.5000000000000000  0.6666666667000030  0.9589210208792117
  0.8333333332999970  0.0000000000000000  0.9589210208792117
  0.8333333332999970  0.3333333332999970  0.9589210208792117
  0.8333333332999970  0.6666666667000030  0.9589210208792117
  0.0000000000000000  0.3333333332999970  0.2089210208792188
  0.0000000000000000  0.6666666667000030  0.2089210208792188
 -0.0000000000000000 -0.0000000000000000  0.2089210208792188
  0.3333333332999970  0.3333333332999970  0.2089210208792188
  0.3333333332999970  0.6666666667000030  0.2089210208792188
  0.3333333332999970  0.0000000000000000  0.2089210208792188
  0.6666666667000030  0.3333333332999970  0.2089210208792188
  0.6666666667000030  0.6666666667000030  0.2089210208792188
  0.6666666667000030  0.0000000000000000  0.2089210208792188
  0.1666666667000030  0.1666666667000030  0.7089210208792117
  0.1666666667000030  0.5000000000000000  0.7089210208792117
  0.1666666667000030  0.8333333332999970  0.7089210208792117
  0.5000000000000000  0.1666666667000030  0.7089210208792117
  0.5000000000000000  0.5000000000000000  0.7089210208792117
  0.5000000000000000  0.8333333332999970  0.7089210208792117
  0.8333333332999970  0.1666666667000030  0.7089210208792117
  0.8333333332999970  0.5000000000000000  0.7089210208792117
  0.8333333332999970  0.8333333332999970  0.7089210208792117
 -0.0000000000000000  0.1666666667000030  0.0410789791207812
 -0.0000000000000000  0.5000000000000000  0.0410789791207812
  0.0000000000000000  0.8333333332999970  0.0410789791207812
  0.3333333332999970  0.1666666667000030  0.0410789791207812
  0.3333333332999970  0.5000000000000000  0.0410789791207812
  0.3333333332999970  0.8333333332999970  0.0410789791207812
  0.6666666667000030  0.1666666667000030  0.0410789791207812
  0.6666666667000030  0.5000000000000000  0.0410789791207812
  0.6666666667000030  0.8333333332999970  0.0410789791207812
  0.1666666667000030 -0.0000000000000000  0.5410789791207883
  0.1666666667000030  0.3333333332999970  0.5410789791207883
  0.1666666667000030  0.6666666667000030  0.5410789791207883
  0.5000000000000000  0.0000000000000000  0.5410789791207883
  0.5000000000000000  0.3333333332999970  0.5410789791207883
  0.5000000000000000  0.6666666667000030  0.5410789791207883
  0.8333333332999970  0.0000000000000000  0.5410789791207883
  0.8333333332999970  0.3333333332999970  0.5410789791207883
  0.8333333332999970  0.6666666667000030  0.5410789791207883
  0.3333333332999970  0.0000000000000000  0.7910789791207883
  0.3333333332999970  0.3333333332999970  0.7910789791207883
  0.3333333332999970  0.6666666667000030  0.7910789791207883
  0.6666666667000030  0.0000000000000000  0.7910789791207883
  0.6666666667000030  0.3333333332999970  0.7910789791207883
  0.6666666667000030  0.6666666667000030  0.7910789791207883
  0.0000000000000000  0.0000000000000000  0.7910789791207883
  0.0000000000000000  0.3333333332999970  0.7910789791207883
 -0.0000000000000000  0.6666666667000030  0.7910789791207883
  0.1666666667000030  0.1666666667000030  0.2910789791207812
  0.1666666667000030  0.5000000000000000  0.2910789791207812
  0.1666666667000030  0.8333333332999970  0.2910789791207812
  0.5000000000000000  0.1666666667000030  0.2910789791207812
  0.5000000000000000  0.5000000000000000  0.2910789791207812
  0.5000000000000000  0.8333333332999970  0.2910789791207812
  0.8333333332999970  0.1666666667000030  0.2910789791207812
  0.8333333332999970  0.5000000000000000  0.2910789791207812
  0.8333333332999970  0.8333333332999970  0.2910789791207812
 
  0.00000000E+00  0.00000000E+00  0.00000000E+00
  0.00000000E+00  0.00000000E+00  0.00000000E+00
  0.00000000E+00  0.00000000E+00  0.00000000E+00
  0.00000000E+00  0.00000000E+00  0.00000000E+00
  0.00000000E+00  0.00000000E+00  0.00000000E+00
  0.00000000E+00  0.00000000E+00  0.00000000E+00
  0.00000000E+00  0.00000000E+00  0.00000000E+00
  0.00000000E+00  0.00000000E+00  0.00000000E+00
  0.00000000E+00  0.00000000E+00  0.00000000E+00
  0.00000000E+00  0.00000000E+00  0.00000000E+00
  0.00000000E+00  0.00000000E+00  0.00000000E+00
  0.00000000E+00  0.00000000E+00  0.00000000E+00
  0.00000000E+00  0.00000000E+00  0.00000000E+00
  0.00000000E+00  0.00000000E+00  0.00000000E+00
  0.00000000E+00  0.00000000E+00  0.00000000E+00
  0.00000000E+00  0.00000000E+00  0.00000000E+00
  0.00000000E+00  0.00000000E+00  0.00000000E+00
  0.00000000E+00  0.00000000E+00  0.00000000E+00
  0.00000000E+00  0.00000000E+00  0.00000000E+00
  0.00000000E+00  0.00000000E+00  0.00000000E+00
  0.00000000E+00  0.00000000E+00  0.00000000E+00
  0.00000000E+00  0.00000000E+00  0.00000000E+00
  0.00000000E+00  0.00000000E+00  0.00000000E+00
  0.00000000E+00  0.00000000E+00  0.00000000E+00
  0.00000000E+00  0.00000000E+00  0.00000000E+00
  0.00000000E+00  0.00000000E+00  0.00000000E+00
  0.00000000E+00  0.00000000E+00  0.00000000E+00
  0.00000000E+00  0.00000000E+00  0.00000000E+00
  0.00000000E+00  0.00000000E+00  0.00000000E+00
  0.00000000E+00  0.00000000E+00  0.00000000E+00
  0.00000000E+00  0.00000000E+00  0.00000000E+00
  0.00000000E+00  0.00000000E+00  0.00000000E+00
  0.00000000E+00  0.00000000E+00  0.00000000E+00
  0.00000000E+00  0.00000000E+00  0.00000000E+00
  0.00000000E+00  0.00000000E+00  0.00000000E+00
  0.00000000E+00  0.00000000E+00  0.00000000E+00
  0.00000000E+00  0.00000000E+00  0.00000000E+00
  0.00000000E+00  0.00000000E+00  0.00000000E+00
  0.00000000E+00  0.00000000E+00  0.00000000E+00
  0.00000000E+00  0.00000000E+00  0.00000000E+00
  0.00000000E+00  0.00000000E+00  0.00000000E+00
  0.00000000E+00  0.00000000E+00  0.00000000E+00
  0.00000000E+00  0.00000000E+00  0.00000000E+00
  0.00000000E+00  0.00000000E+00  0.00000000E+00
  0.00000000E+00  0.00000000E+00  0.00000000E+00
  0.00000000E+00  0.00000000E+00  0.00000000E+00
  0.00000000E+00  0.00000000E+00  0.00000000E+00
  0.00000000E+00  0.00000000E+00  0.00000000E+00
  0.00000000E+00  0.00000000E+00  0.00000000E+00
  0.00000000E+00  0.00000000E+00  0.00000000E+00
  0.00000000E+00  0.00000000E+00  0.00000000E+00
  0.00000000E+00  0.00000000E+00  0.00000000E+00
  0.00000000E+00  0.00000000E+00  0.00000000E+00
  0.00000000E+00  0.00000000E+00  0.00000000E+00
  0.00000000E+00  0.00000000E+00  0.00000000E+00
  0.00000000E+00  0.00000000E+00  0.00000000E+00
  0.00000000E+00  0.00000000E+00  0.00000000E+00
  0.00000000E+00  0.00000000E+00  0.00000000E+00
  0.00000000E+00  0.00000000E+00  0.00000000E+00
  0.00000000E+00  0.00000000E+00  0.00000000E+00
  0.00000000E+00  0.00000000E+00  0.00000000E+00
  0.00000000E+00  0.00000000E+00  0.00000000E+00
  0.00000000E+00  0.00000000E+00  0.00000000E+00
  0.00000000E+00  0.00000000E+00  0.00000000E+00
  0.00000000E+00  0.00000000E+00  0.00000000E+00
  0.00000000E+00  0.00000000E+00  0.00000000E+00
  0.00000000E+00  0.00000000E+00  0.00000000E+00
  0.00000000E+00  0.00000000E+00  0.00000000E+00
  0.00000000E+00  0.00000000E+00  0.00000000E+00
  0.00000000E+00  0.00000000E+00  0.00000000E+00
  0.00000000E+00  0.00000000E+00  0.00000000E+00
  0.00000000E+00  0.00000000E+00  0.00000000E+00
  0.00000000E+00  0.00000000E+00  0.00000000E+00
  0.00000000E+00  0.00000000E+00  0.00000000E+00
  0.00000000E+00  0.00000000E+00  0.00000000E+00
  0.00000000E+00  0.00000000E+00  0.00000000E+00
  0.00000000E+00  0.00000000E+00  0.00000000E+00
  0.00000000E+00  0.00000000E+00  0.00000000E+00
  0.00000000E+00  0.00000000E+00  0.00000000E+00
  0.00000000E+00  0.00000000E+00  0.00000000E+00
  0.00000000E+00  0.00000000E+00  0.00000000E+00
  0.00000000E+00  0.00000000E+00  0.00000000E+00
  0.00000000E+00  0.00000000E+00  0.00000000E+00
  0.00000000E+00  0.00000000E+00  0.00000000E+00
  0.00000000E+00  0.00000000E+00  0.00000000E+00
  0.00000000E+00  0.00000000E+00  0.00000000E+00
  0.00000000E+00  0.00000000E+00  0.00000000E+00
  0.00000000E+00  0.00000000E+00  0.00000000E+00
  0.00000000E+00  0.00000000E+00  0.00000000E+00
  0.00000000E+00  0.00000000E+00  0.00000000E+00
  0.00000000E+00  0.00000000E+00  0.00000000E+00
  0.00000000E+00  0.00000000E+00  0.00000000E+00
  0.00000000E+00  0.00000000E+00  0.00000000E+00
  0.00000000E+00  0.00000000E+00  0.00000000E+00
  0.00000000E+00  0.00000000E+00  0.00000000E+00
  0.00000000E+00  0.00000000E+00  0.00000000E+00
  0.00000000E+00  0.00000000E+00  0.00000000E+00
  0.00000000E+00  0.00000000E+00  0.00000000E+00
  0.00000000E+00  0.00000000E+00  0.00000000E+00
  0.00000000E+00  0.00000000E+00  0.00000000E+00
  0.00000000E+00  0.00000000E+00  0.00000000E+00
  0.00000000E+00  0.00000000E+00  0.00000000E+00
  0.00000000E+00  0.00000000E+00  0.00000000E+00
  0.00000000E+00  0.00000000E+00  0.00000000E+00
  0.00000000E+00  0.00000000E+00  0.00000000E+00
  0.00000000E+00  0.00000000E+00  0.00000000E+00
  0.00000000E+00  0.00000000E+00  0.00000000E+00
  0.00000000E+00  0.00000000E+00  0.00000000E+00
