Ti36 O72                            
   1.00000000000000     
    11.6329049503000004    0.0000000000000000    0.0000000000000000
     0.0000000000000000   11.6329049503000004    0.0000000000000000
     0.0000000000000000    0.0000000000000000    9.5695023413999998
   Ti   O    O
    36    71     1
Direct
  0.0000229313557002  0.9992240556773989  0.9989603408446066
  0.0001848705296068  0.3336425625711526  0.9989510534418659
  0.9997015559240210  0.6664023433469438  0.0000796276320119
  0.3335533609201536  0.9992534447089948  0.9988942401772499
  0.3335751543893550  0.3337214050610315  0.9989105087503672
  0.3336441465249855  0.6664561854690420  0.0001030210256442
  0.6668053872136505  0.9995922245999812  0.9999405579411339
  0.6668377310941822  0.3336747838342363  0.0000344030674273
  0.6666787260257342  0.6666361828557036  0.0001026882512616
  0.1669504539504815  0.1665858516889956  0.5072624165908539
  0.1668434016424149  0.5006503701517577  0.4997466400134464
  0.1667738803162989  0.8325795731640560  0.4997139542700658
  0.5002711588794239  0.1667567096119668  0.5026709136794508
  0.5002903428680474  0.5001835368406353  0.4999436745955474
  0.5002131643211045  0.8332875380915206  0.4999315740486872
  0.8336042064275875  0.1668917193747376  0.5027740959066344
  0.8333801150195461  0.5002515405511594  0.4999327248416784
  0.8333280673465711  0.8333650535544710  0.4999097498723864
  0.9912697955118847  0.1664491194338968  0.2460693682882398
  0.0003286242404178  0.5002860415447564  0.2507374285684517
  0.0002104530532627  0.8325626056646321  0.2507024007538571
  0.3426242370777388  0.1664816477289087  0.2459181415518011
  0.3333697894453951  0.5003470841811278  0.2507419924869806
  0.3333254568523644  0.8326292057700891  0.2506961605326058
  0.6669746874905319  0.1666293624207856  0.2491371421281899
  0.6668343763130947  0.4999278183670064  0.2498290925604323
  0.6667774332182744  0.8333359443970655  0.2498362309916245
  0.1667847784172226  0.9979848315556056  0.7506949649972537
  0.1668491564942591  0.3351624853244761  0.7506030310621993
  0.1666811889975843  0.6665689160409287  0.7510397640746025
  0.5003868389269257  0.9993388124974684  0.7501841554371659
  0.5004414023780304  0.3340915016265709  0.7502481567199568
  0.5001683791702694  0.6667261562122742  0.7501209584480906
  0.8331899389092129  0.9994116750330534  0.7501737526678457
  0.8332221798451157  0.3341896789760290  0.7503503292279798
  0.8331756509482340  0.6668171625060146  0.7500876853101893
  0.0002891441427372  0.5000549379388068  0.4592817379215859
  0.0002397444138263  0.8331207975856727  0.4592515719998947
  0.3315490289740075  0.1667437940741084  0.4544112492769072
  0.3333838410263665  0.5000935836269770  0.4592832026937032
  0.3333049188835144  0.8331288465819233  0.4592400022684613
  0.6669300933062281  0.1667405103664755  0.4597951639937222
  0.6668331424412138  0.4999550371739806  0.4587078769123277
  0.6667736440443505  0.8338344068338926  0.4587571751966427
  0.1667719909283610  0.0005966821232792  0.9590132589182155
  0.1668495033698011  0.3322686168018746  0.9589068570702055
  0.1666750825541541  0.6663648655361465  0.9597421952327052
  0.5000995879563044  0.9988941137239973  0.9591292035110094
  0.5001154292312359  0.3342474455108805  0.9592034499524223
  0.4999779123127294  0.6665687187590150  0.9590763309263954
  0.8334832953886518  0.9989244851716956  0.9591040565071658
  0.8335614902466461  0.3342208513506688  0.9592818589227139
  0.8333862200557962  0.6666085809733148  0.9590450463006732
  0.3284780690824923  0.0012671085996935  0.2099483257963423
  0.3281118349367116  0.3316654482413167  0.2099629262839713
  0.3330950680553960  0.6664873261416864  0.2095179396375943
  0.6670174254141116  0.0002994509181352  0.2088577814160442
  0.6668286070192291  0.3329607641638149  0.2088952747778440
  0.6667430161039857  0.6666209156442365  0.2094868811265991
  0.0049908762775464  0.0012095676335933  0.2100472785109478
  0.0058186116646081  0.3316249168784404  0.2100132899188683
  0.0004317062649719  0.6664241077378567  0.2094848108086677
  0.1669171778979986  0.1665723637240930  0.7098576881402812
  0.1667341884178804  0.4999751567320039  0.7091699779997632
  0.1667322969417613  0.8331854911957851  0.7091498668669649
  0.4992933085546111  0.1667249925036917  0.7095315321196494
  0.5002505825583102  0.5000914691875241  0.7088556850453303
  0.5002048012343188  0.8333598326249233  0.7088361492569398
  0.8342550986466968  0.1668088781239908  0.7096286060162723
  0.8332248055770115  0.5001795937178092  0.7088745402754877
  0.8331579947169976  0.8334442967003477  0.7088105778071687
  0.9950516266524240  0.1664352216252825  0.0389748266775818
  0.9992749352126219  0.4994120417394271  0.0419924141937183
  0.9993096899306227  0.8334414727700034  0.0419772703728794
  0.3386765797043300  0.1664806299886091  0.0388101179957003
  0.3341961799811973  0.4994777390676713  0.0420016701320060
  0.3341189717370391  0.8334718301229972  0.0419671867216876
  0.6668524506267490  0.1666213422485122  0.0409321985904419
  0.6667722730403254  0.5000177791376427  0.0411748795131150
  0.6667042765622148  0.8332547242167655  0.0411795302034404
  0.1668261986169340  0.0004518219149487  0.5403518939454713
  0.1669730206150865  0.3327242434851267  0.5403446595942734
  0.1667739443769763  0.6665903413328906  0.5416915114347842
  0.4991731963685044  0.0003922394953996  0.5411599881531607
  0.4993850122480773  0.3330796517062847  0.5412071527111549
  0.5000766035446833  0.6667345050164224  0.5408098505001423
  0.8345846185630338  0.0004940128536092  0.5411479553424391
  0.8343347634388022  0.3331692943701851  0.5413134764257771
  0.8334748095060646  0.6667959844447752  0.5407823817585539
  0.3331953851822878  0.9993922995901808  0.7908665346091924
  0.3332579818200396  0.3338528742928997  0.7908582478420280
  0.3332413111052978  0.6666093302128320  0.7915036176446619
  0.6667830226463572  0.0004804505352577  0.7907314848941023
  0.6668292037683716  0.3331184261417857  0.7908715121321530
  0.6666738652307775  0.6668078264097993  0.7911316998203634
  0.0003627633936907  0.9994694423273475  0.7908958344629142
  0.0004099680813649  0.3337979360639698  0.7908970166332610
  0.0001197085808060  0.6666633439646406  0.7914674142231292
  0.1669357039251431  0.1658996549414667  0.2768258893556046
  0.1668413926981246  0.5007121814111538  0.2913904776020435
  0.1667637360571659  0.8324803321673080  0.2913078769433981
  0.5021659029597622  0.1665919752737185  0.2914675324282105
  0.4997386254639747  0.4983014117635844  0.2906946511816957
  0.4997117385868263  0.8347682783916713  0.2906965629592811
  0.8317283910238388  0.1668509975560216  0.2916174941410389
  0.8339222834292374  0.4982258306029665  0.2906856948308836
  0.8338275044581612  0.8346011487801198  0.2907092651374139
  0.0023411537838774  0.1668718808006021  0.4545731593250301
 
  0.00000000E+00  0.00000000E+00  0.00000000E+00
  0.00000000E+00  0.00000000E+00  0.00000000E+00
  0.00000000E+00  0.00000000E+00  0.00000000E+00
  0.00000000E+00  0.00000000E+00  0.00000000E+00
  0.00000000E+00  0.00000000E+00  0.00000000E+00
  0.00000000E+00  0.00000000E+00  0.00000000E+00
  0.00000000E+00  0.00000000E+00  0.00000000E+00
  0.00000000E+00  0.00000000E+00  0.00000000E+00
  0.00000000E+00  0.00000000E+00  0.00000000E+00
  0.00000000E+00  0.00000000E+00  0.00000000E+00
  0.00000000E+00  0.00000000E+00  0.00000000E+00
  0.00000000E+00  0.00000000E+00  0.00000000E+00
  0.00000000E+00  0.00000000E+00  0.00000000E+00
  0.00000000E+00  0.00000000E+00  0.00000000E+00
  0.00000000E+00  0.00000000E+00  0.00000000E+00
  0.00000000E+00  0.00000000E+00  0.00000000E+00
  0.00000000E+00  0.00000000E+00  0.00000000E+00
  0.00000000E+00  0.00000000E+00  0.00000000E+00
  0.00000000E+00  0.00000000E+00  0.00000000E+00
  0.00000000E+00  0.00000000E+00  0.00000000E+00
  0.00000000E+00  0.00000000E+00  0.00000000E+00
  0.00000000E+00  0.00000000E+00  0.00000000E+00
  0.00000000E+00  0.00000000E+00  0.00000000E+00
  0.00000000E+00  0.00000000E+00  0.00000000E+00
  0.00000000E+00  0.00000000E+00  0.00000000E+00
  0.00000000E+00  0.00000000E+00  0.00000000E+00
  0.00000000E+00  0.00000000E+00  0.00000000E+00
  0.00000000E+00  0.00000000E+00  0.00000000E+00
  0.00000000E+00  0.00000000E+00  0.00000000E+00
  0.00000000E+00  0.00000000E+00  0.00000000E+00
  0.00000000E+00  0.00000000E+00  0.00000000E+00
  0.00000000E+00  0.00000000E+00  0.00000000E+00
  0.00000000E+00  0.00000000E+00  0.00000000E+00
  0.00000000E+00  0.00000000E+00  0.00000000E+00
  0.00000000E+00  0.00000000E+00  0.00000000E+00
  0.00000000E+00  0.00000000E+00  0.00000000E+00
  0.00000000E+00  0.00000000E+00  0.00000000E+00
  0.00000000E+00  0.00000000E+00  0.00000000E+00
  0.00000000E+00  0.00000000E+00  0.00000000E+00
  0.00000000E+00  0.00000000E+00  0.00000000E+00
  0.00000000E+00  0.00000000E+00  0.00000000E+00
  0.00000000E+00  0.00000000E+00  0.00000000E+00
  0.00000000E+00  0.00000000E+00  0.00000000E+00
  0.00000000E+00  0.00000000E+00  0.00000000E+00
  0.00000000E+00  0.00000000E+00  0.00000000E+00
  0.00000000E+00  0.00000000E+00  0.00000000E+00
  0.00000000E+00  0.00000000E+00  0.00000000E+00
  0.00000000E+00  0.00000000E+00  0.00000000E+00
  0.00000000E+00  0.00000000E+00  0.00000000E+00
  0.00000000E+00  0.00000000E+00  0.00000000E+00
  0.00000000E+00  0.00000000E+00  0.00000000E+00
  0.00000000E+00  0.00000000E+00  0.00000000E+00
  0.00000000E+00  0.00000000E+00  0.00000000E+00
  0.00000000E+00  0.00000000E+00  0.00000000E+00
  0.00000000E+00  0.00000000E+00  0.00000000E+00
  0.00000000E+00  0.00000000E+00  0.00000000E+00
  0.00000000E+00  0.00000000E+00  0.00000000E+00
  0.00000000E+00  0.00000000E+00  0.00000000E+00
  0.00000000E+00  0.00000000E+00  0.00000000E+00
  0.00000000E+00  0.00000000E+00  0.00000000E+00
  0.00000000E+00  0.00000000E+00  0.00000000E+00
  0.00000000E+00  0.00000000E+00  0.00000000E+00
  0.00000000E+00  0.00000000E+00  0.00000000E+00
  0.00000000E+00  0.00000000E+00  0.00000000E+00
  0.00000000E+00  0.00000000E+00  0.00000000E+00
  0.00000000E+00  0.00000000E+00  0.00000000E+00
  0.00000000E+00  0.00000000E+00  0.00000000E+00
  0.00000000E+00  0.00000000E+00  0.00000000E+00
  0.00000000E+00  0.00000000E+00  0.00000000E+00
  0.00000000E+00  0.00000000E+00  0.00000000E+00
  0.00000000E+00  0.00000000E+00  0.00000000E+00
  0.00000000E+00  0.00000000E+00  0.00000000E+00
  0.00000000E+00  0.00000000E+00  0.00000000E+00
  0.00000000E+00  0.00000000E+00  0.00000000E+00
  0.00000000E+00  0.00000000E+00  0.00000000E+00
  0.00000000E+00  0.00000000E+00  0.00000000E+00
  0.00000000E+00  0.00000000E+00  0.00000000E+00
  0.00000000E+00  0.00000000E+00  0.00000000E+00
  0.00000000E+00  0.00000000E+00  0.00000000E+00
  0.00000000E+00  0.00000000E+00  0.00000000E+00
  0.00000000E+00  0.00000000E+00  0.00000000E+00
  0.00000000E+00  0.00000000E+00  0.00000000E+00
  0.00000000E+00  0.00000000E+00  0.00000000E+00
  0.00000000E+00  0.00000000E+00  0.00000000E+00
  0.00000000E+00  0.00000000E+00  0.00000000E+00
  0.00000000E+00  0.00000000E+00  0.00000000E+00
  0.00000000E+00  0.00000000E+00  0.00000000E+00
  0.00000000E+00  0.00000000E+00  0.00000000E+00
  0.00000000E+00  0.00000000E+00  0.00000000E+00
  0.00000000E+00  0.00000000E+00  0.00000000E+00
  0.00000000E+00  0.00000000E+00  0.00000000E+00
  0.00000000E+00  0.00000000E+00  0.00000000E+00
  0.00000000E+00  0.00000000E+00  0.00000000E+00
  0.00000000E+00  0.00000000E+00  0.00000000E+00
  0.00000000E+00  0.00000000E+00  0.00000000E+00
  0.00000000E+00  0.00000000E+00  0.00000000E+00
  0.00000000E+00  0.00000000E+00  0.00000000E+00
  0.00000000E+00  0.00000000E+00  0.00000000E+00
  0.00000000E+00  0.00000000E+00  0.00000000E+00
  0.00000000E+00  0.00000000E+00  0.00000000E+00
  0.00000000E+00  0.00000000E+00  0.00000000E+00
  0.00000000E+00  0.00000000E+00  0.00000000E+00
  0.00000000E+00  0.00000000E+00  0.00000000E+00
  0.00000000E+00  0.00000000E+00  0.00000000E+00
  0.00000000E+00  0.00000000E+00  0.00000000E+00
  0.00000000E+00  0.00000000E+00  0.00000000E+00
  0.00000000E+00  0.00000000E+00  0.00000000E+00
  0.00000000E+00  0.00000000E+00  0.00000000E+00
