Ti72 O144
1.0
  13.8572986041468482    0.0000000000000000    0.0000000000000000
   0.0000000000000000   13.8572986041468482    0.0000000000000000
   0.0000000000000000    0.0000000000000000   12.0036836367354685
Ti O
72 144
direct
   0.1666666666666667    0.1666666666666667    0.0000000000000000 Ti
   0.1666666666666667    0.1666666666666667    0.2500000000000000 Ti
   0.1666666666666667    0.1666666666666667    0.5000000000000000 Ti
   0.1666666666666667    0.1666666666666667    0.7500000000000000 Ti
   0.1666666666666667    0.5000000000000000    0.0000000000000000 Ti
   0.1666666666666667    0.5000000000000000    0.2500000000000000 Ti
   0.1666666666666667    0.5000000000000000    0.5000000000000000 Ti
   0.1666666666666667    0.5000000000000000    0.7500000000000000 Ti
   0.1666666666666667    0.8333333333333333    0.0000000000000000 Ti
   0.1666666666666667    0.8333333333333333    0.2500000000000000 Ti
   0.1666666666666667    0.8333333333333333    0.5000000000000000 Ti
   0.1666666666666667    0.8333333333333333    0.7500000000000000 Ti
   0.5000000000000000    0.1666666666666667    0.0000000000000000 Ti
   0.5000000000000000    0.1666666666666667    0.2500000000000000 Ti
   0.5000000000000000    0.1666666666666667    0.5000000000000000 Ti
   0.5000000000000000    0.1666666666666667    0.7500000000000000 Ti
   0.5000000000000000    0.5000000000000000    0.0000000000000000 Ti
   0.5000000000000000    0.5000000000000000    0.2500000000000000 Ti
   0.5000000000000000    0.5000000000000000    0.5000000000000000 Ti
   0.5000000000000000    0.5000000000000000    0.7500000000000000 Ti
   0.5000000000000000    0.8333333333333333    0.0000000000000000 Ti
   0.5000000000000000    0.8333333333333333    0.2500000000000000 Ti
   0.5000000000000000    0.8333333333333333    0.5000000000000000 Ti
   0.5000000000000000    0.8333333333333333    0.7500000000000000 Ti
   0.8333333333333333    0.1666666666666667    0.0000000000000000 Ti
   0.8333333333333333    0.1666666666666667    0.2500000000000000 Ti
   0.8333333333333333    0.1666666666666667    0.5000000000000000 Ti
   0.8333333333333333    0.1666666666666667    0.7500000000000000 Ti
   0.8333333333333333    0.5000000000000000    0.0000000000000000 Ti
   0.8333333333333333    0.5000000000000000    0.2500000000000000 Ti
   0.8333333333333333    0.5000000000000000    0.5000000000000000 Ti
   0.8333333333333333    0.5000000000000000    0.7500000000000000 Ti
   0.8333333333333333    0.8333333333333333    0.0000000000000000 Ti
   0.8333333333333333    0.8333333333333333    0.2500000000000000 Ti
   0.8333333333333333    0.8333333333333333    0.5000000000000000 Ti
   0.8333333333333333    0.8333333333333333    0.7500000000000000 Ti
   0.0000000000000000    0.0000000000000000    0.1250000000000000 Ti
   0.0000000000000000    0.0000000000000000    0.3750000000000000 Ti
   0.0000000000000000    0.0000000000000000    0.6250000000000000 Ti
   0.0000000000000000    0.0000000000000000    0.8750000000000001 Ti
   0.0000000000000000    0.3333333333333333    0.1250000000000000 Ti
   0.0000000000000000    0.3333333333333333    0.3750000000000000 Ti
   0.0000000000000000    0.3333333333333333    0.6250000000000000 Ti
   0.0000000000000000    0.3333333333333333    0.8750000000000001 Ti
   0.0000000000000000    0.6666666666666666    0.1250000000000000 Ti
   0.0000000000000000    0.6666666666666666    0.3750000000000000 Ti
   0.0000000000000000    0.6666666666666666    0.6250000000000000 Ti
   0.0000000000000000    0.6666666666666666    0.8750000000000001 Ti
   0.3333333333333333    0.0000000000000000    0.1250000000000000 Ti
   0.3333333333333333    0.0000000000000000    0.3750000000000000 Ti
   0.3333333333333333    0.0000000000000000    0.6250000000000000 Ti
   0.3333333333333333    0.0000000000000000    0.8750000000000001 Ti
   0.3333333333333333    0.3333333333333333    0.1250000000000000 Ti
   0.3333333333333333    0.3333333333333333    0.3750000000000000 Ti
   0.3333333333333333    0.3333333333333333    0.6250000000000000 Ti
   0.3333333333333333    0.3333333333333333    0.8750000000000001 Ti
   0.3333333333333333    0.6666666666666666    0.1250000000000000 Ti
   0.3333333333333333    0.6666666666666666    0.3750000000000000 Ti
   0.3333333333333333    0.6666666666666666    0.6250000000000000 Ti
   0.3333333333333333    0.6666666666666666    0.8750000000000001 Ti
   0.6666666666666666    0.0000000000000000    0.1250000000000000 Ti
   0.6666666666666666    0.0000000000000000    0.3750000000000000 Ti
   0.6666666666666666    0.0000000000000000    0.6250000000000000 Ti
   0.6666666666666666    0.0000000000000000    0.8750000000000001 Ti
   0.6666666666666666    0.3333333333333333    0.1250000000000000 Ti
   0.6666666666666666    0.3333333333333333    0.3750000000000000 Ti
   0.6666666666666666    0.3333333333333333    0.6250000000000000 Ti
   0.6666666666666666    0.3333333333333333    0.8750000000000001 Ti
   0.6666666666666666    0.6666666666666666    0.1250000000000000 Ti
   0.6666666666666666    0.6666666666666666    0.3750000000000000 Ti
   0.6666666666666666    0.6666666666666666    0.6250000000000000 Ti
   0.6666666666666666    0.6666666666666666    0.8750000000000001 Ti
   0.2317971709893622    0.2317971709893622    0.1250000000000000 O
   0.2317971709893622    0.2317971709893622    0.3750000000000000 O
   0.2317971709893622    0.2317971709893622    0.6250000000000000 O
   0.2317971709893622    0.2317971709893622    0.8750000000000001 O
   0.2317971709893622    0.5651305043226955    0.1250000000000000 O
   0.2317971709893622    0.5651305043226955    0.3750000000000000 O
   0.2317971709893622    0.5651305043226955    0.6250000000000000 O
   0.2317971709893622    0.5651305043226955    0.8750000000000001 O
   0.2317971709893622    0.8984638376560289    0.1250000000000000 O
   0.2317971709893622    0.8984638376560289    0.3750000000000000 O
   0.2317971709893622    0.8984638376560289    0.6250000000000000 O
   0.2317971709893622    0.8984638376560289    0.8750000000000001 O
   0.5651305043226955    0.2317971709893622    0.1250000000000000 O
   0.5651305043226955    0.2317971709893622    0.3750000000000000 O
   0.5651305043226955    0.2317971709893622    0.6250000000000000 O
   0.5651305043226955    0.2317971709893622    0.8750000000000001 O
   0.5651305043226955    0.5651305043226955    0.1250000000000000 O
   0.5651305043226955    0.5651305043226955    0.3750000000000000 O
   0.5651305043226955    0.5651305043226955    0.6250000000000000 O
   0.5651305043226955    0.5651305043226955    0.8750000000000001 O
   0.5651305043226955    0.8984638376560289    0.1250000000000000 O
   0.5651305043226955    0.8984638376560289    0.3750000000000000 O
   0.5651305043226955    0.8984638376560289    0.6250000000000000 O
   0.5651305043226955    0.8984638376560289    0.8750000000000001 O
   0.8984638376560289    0.2317971709893622    0.1250000000000000 O
   0.8984638376560289    0.2317971709893622    0.3750000000000000 O
   0.8984638376560289    0.2317971709893622    0.6250000000000000 O
   0.8984638376560289    0.2317971709893622    0.8750000000000001 O
   0.8984638376560289    0.5651305043226955    0.1250000000000000 O
   0.8984638376560289    0.5651305043226955    0.3750000000000000 O
   0.8984638376560289    0.5651305043226955    0.6250000000000000 O
   0.8984638376560289    0.5651305043226955    0.8750000000000001 O
   0.8984638376560289    0.8984638376560289    0.1250000000000000 O
   0.8984638376560289    0.8984638376560289    0.3750000000000000 O
   0.8984638376560289    0.8984638376560289    0.6250000000000000 O
   0.8984638376560289    0.8984638376560289    0.8750000000000001 O
   0.2682028290106378    0.0651305043226955    0.0000000000000000 O
   0.2682028290106378    0.0651305043226955    0.2500000000000000 O
   0.2682028290106378    0.0651305043226955    0.5000000000000000 O
   0.2682028290106378    0.0651305043226955    0.7500000000000000 O
   0.2682028290106378    0.3984638376560288    0.0000000000000000 O
   0.2682028290106378    0.3984638376560288    0.2500000000000000 O
   0.2682028290106378    0.3984638376560288    0.5000000000000000 O
   0.2682028290106378    0.3984638376560288    0.7500000000000000 O
   0.2682028290106378    0.7317971709893623    0.0000000000000000 O
   0.2682028290106378    0.7317971709893623    0.2500000000000000 O
   0.2682028290106378    0.7317971709893623    0.5000000000000000 O
   0.2682028290106378    0.7317971709893623    0.7500000000000000 O
   0.6015361623439711    0.0651305043226955    0.0000000000000000 O
   0.6015361623439711    0.0651305043226955    0.2500000000000000 O
   0.6015361623439711    0.0651305043226955    0.5000000000000000 O
   0.6015361623439711    0.0651305043226955    0.7500000000000000 O
   0.6015361623439711    0.3984638376560288    0.0000000000000000 O
   0.6015361623439711    0.3984638376560288    0.2500000000000000 O
   0.6015361623439711    0.3984638376560288    0.5000000000000000 O
   0.6015361623439711    0.3984638376560288    0.7500000000000000 O
   0.6015361623439711    0.7317971709893623    0.0000000000000000 O
   0.6015361623439711    0.7317971709893623    0.2500000000000000 O
   0.6015361623439711    0.7317971709893623    0.5000000000000000 O
   0.6015361623439711    0.7317971709893623    0.7500000000000000 O
   0.9348694956773044    0.0651305043226955    0.0000000000000000 O
   0.9348694956773044    0.0651305043226955    0.2500000000000000 O
   0.9348694956773044    0.0651305043226955    0.5000000000000000 O
   0.9348694956773044    0.0651305043226955    0.7500000000000000 O
   0.9348694956773044    0.3984638376560288    0.0000000000000000 O
   0.9348694956773044    0.3984638376560288    0.2500000000000000 O
   0.9348694956773044    0.3984638376560288    0.5000000000000000 O
   0.9348694956773044    0.3984638376560288    0.7500000000000000 O
   0.9348694956773044    0.7317971709893623    0.0000000000000000 O
   0.9348694956773044    0.7317971709893623    0.2500000000000000 O
   0.9348694956773044    0.7317971709893623    0.5000000000000000 O
   0.9348694956773044    0.7317971709893623    0.7500000000000000 O
   0.0651305043226955    0.2682028290106378    0.0000000000000000 O
   0.0651305043226955    0.2682028290106378    0.2500000000000000 O
   0.0651305043226955    0.2682028290106378    0.5000000000000000 O
   0.0651305043226955    0.2682028290106378    0.7500000000000000 O
   0.0651305043226955    0.6015361623439711    0.0000000000000000 O
   0.0651305043226955    0.6015361623439711    0.2500000000000000 O
   0.0651305043226955    0.6015361623439711    0.5000000000000000 O
   0.0651305043226955    0.6015361623439711    0.7500000000000000 O
   0.0651305043226955    0.9348694956773044    0.0000000000000000 O
   0.0651305043226955    0.9348694956773044    0.2500000000000000 O
   0.0651305043226955    0.9348694956773044    0.5000000000000000 O
   0.0651305043226955    0.9348694956773044    0.7500000000000000 O
   0.3984638376560288    0.2682028290106378    0.0000000000000000 O
   0.3984638376560288    0.2682028290106378    0.2500000000000000 O
   0.3984638376560288    0.2682028290106378    0.5000000000000000 O
   0.3984638376560288    0.2682028290106378    0.7500000000000000 O
   0.3984638376560288    0.6015361623439711    0.0000000000000000 O
   0.3984638376560288    0.6015361623439711    0.2500000000000000 O
   0.3984638376560288    0.6015361623439711    0.5000000000000000 O
   0.3984638376560288    0.6015361623439711    0.7500000000000000 O
   0.3984638376560288    0.9348694956773044    0.0000000000000000 O
   0.3984638376560288    0.9348694956773044    0.2500000000000000 O
   0.3984638376560288    0.9348694956773044    0.5000000000000000 O
   0.3984638376560288    0.9348694956773044    0.7500000000000000 O
   0.7317971709893623    0.2682028290106378    0.0000000000000000 O
   0.7317971709893623    0.2682028290106378    0.2500000000000000 O
   0.7317971709893623    0.2682028290106378    0.5000000000000000 O
   0.7317971709893623    0.2682028290106378    0.7500000000000000 O
   0.7317971709893623    0.6015361623439711    0.0000000000000000 O
   0.7317971709893623    0.6015361623439711    0.2500000000000000 O
   0.7317971709893623    0.6015361623439711    0.5000000000000000 O
   0.7317971709893623    0.6015361623439711    0.7500000000000000 O
   0.7317971709893623    0.9348694956773044    0.0000000000000000 O
   0.7317971709893623    0.9348694956773044    0.2500000000000000 O
   0.7317971709893623    0.9348694956773044    0.5000000000000000 O
   0.7317971709893623    0.9348694956773044    0.7500000000000000 O
   0.1015361623439712    0.1015361623439712    0.1250000000000000 O
   0.1015361623439712    0.1015361623439712    0.3750000000000000 O
   0.1015361623439712    0.1015361623439712    0.6250000000000000 O
   0.1015361623439712    0.1015361623439712    0.8750000000000001 O
   0.1015361623439712    0.4348694956773045    0.1250000000000000 O
   0.1015361623439712    0.4348694956773045    0.3750000000000000 O
   0.1015361623439712    0.4348694956773045    0.6250000000000000 O
   0.1015361623439712    0.4348694956773045    0.8750000000000001 O
   0.1015361623439712    0.7682028290106377    0.1250000000000000 O
   0.1015361623439712    0.7682028290106377    0.3750000000000000 O
   0.1015361623439712    0.7682028290106377    0.6250000000000000 O
   0.1015361623439712    0.7682028290106377    0.8750000000000001 O
   0.4348694956773045    0.1015361623439712    0.1250000000000000 O
   0.4348694956773045    0.1015361623439712    0.3750000000000000 O
   0.4348694956773045    0.1015361623439712    0.6250000000000000 O
   0.4348694956773045    0.1015361623439712    0.8750000000000001 O
   0.4348694956773045    0.4348694956773045    0.1250000000000000 O
   0.4348694956773045    0.4348694956773045    0.3750000000000000 O
   0.4348694956773045    0.4348694956773045    0.6250000000000000 O
   0.4348694956773045    0.4348694956773045    0.8750000000000001 O
   0.4348694956773045    0.7682028290106377    0.1250000000000000 O
   0.4348694956773045    0.7682028290106377    0.3750000000000000 O
   0.4348694956773045    0.7682028290106377    0.6250000000000000 O
   0.4348694956773045    0.7682028290106377    0.8750000000000001 O
   0.7682028290106377    0.1015361623439712    0.1250000000000000 O
   0.7682028290106377    0.1015361623439712    0.3750000000000000 O
   0.7682028290106377    0.1015361623439712    0.6250000000000000 O
   0.7682028290106377    0.1015361623439712    0.8750000000000001 O
   0.7682028290106377    0.4348694956773045    0.1250000000000000 O
   0.7682028290106377    0.4348694956773045    0.3750000000000000 O
   0.7682028290106377    0.4348694956773045    0.6250000000000000 O
   0.7682028290106377    0.4348694956773045    0.8750000000000001 O
   0.7682028290106377    0.7682028290106377    0.1250000000000000 O
   0.7682028290106377    0.7682028290106377    0.3750000000000000 O
   0.7682028290106377    0.7682028290106377    0.6250000000000000 O
   0.7682028290106377    0.7682028290106377    0.8750000000000001 O
