Ti72 O144                           
   1.00000000000000     
    13.8572986041468482    0.0000000000000000    0.0000000000000000
     0.0000000000000000   13.8572986041468482    0.0000000000000000
     0.0000000000000000    0.0000000000000000   12.0036836367354685
   Ti   O    Ti
    71   144     1
Direct
  0.1667230216297507  0.1665702923627469  0.2481533643334055
  0.1667194856585652  0.1665255409873122  0.4998400360110698
  0.1667436081610803  0.1665861371730895  0.7515318758753853
  0.1669063513823849  0.4995783451025091  0.9998943002411697
  0.1669595283461145  0.4997978319979167  0.2499442264602719
  0.1667790657638079  0.4998413535467176  0.4998876098921476
  0.1669655614617014  0.4997868902782478  0.7498436738375950
  0.1664926831164918  0.8335668891152205  0.9999275828477719
  0.1664485246263670  0.8333340899332389  0.2499552827163938
  0.1666473264383179  0.8332735463298988  0.4999272540479304
  0.1664263793639253  0.8333239114932006  0.7498822664041460
  0.4997049645567244  0.1667950372969543  0.9999066509816485
  0.4999162252370735  0.1668781698810961  0.2499654541325929
  0.4999385842534104  0.1666709011032439  0.4999093511035937
  0.4999191868656946  0.1668802232963262  0.7498546171145375
  0.4996800192252012  0.4995667952538749  0.9998545243342818
  0.4997555745539165  0.4996596906960263  0.2496612692218436
  0.4999762023139687  0.4998885376235772  0.4998541048812942
  0.4997776937567772  0.4996647451116284  0.7500498325441903
  0.5002215477419473  0.8330944423959978  0.9999297864373692
  0.5001107594901824  0.8331883668831608  0.2499403744710860
  0.5001008372459094  0.8332133168778780  0.4999241636984260
  0.5000907041908027  0.8332042243518366  0.7499162194020512
  0.8336623379552657  0.1663722489711276  0.9999259680503499
  0.8334229446128510  0.1663290990934656  0.2499559427833041
  0.8333987750885843  0.1665360285208921  0.4999296160617900
  0.8334279426657129  0.1663212365367119  0.7498715887437513
  0.8332557363692110  0.5000663339093968  0.9999237029515217
  0.8334042034465456  0.4999372014226941  0.2499268334688932
  0.8333965079824468  0.4999415894114707  0.4999170075201498
  0.8333770084020253  0.4999566679469484  0.7498989430082306
  0.8336548190227944  0.8335235527625612  0.9999188328462381
  0.8335632702859554  0.8334449002787412  0.2497473376161980
  0.8333810152789289  0.8332509269183588  0.4999075129658596
  0.8335809493200640  0.8334497972834749  0.7500821063670673
  0.0007058078492725  0.0006635243416138  0.1251686730612327
  0.0004776858079162  0.0003309402144139  0.3749031290597000
  0.0004680909957896  0.0003693018788549  0.6247394486564082
  0.0007541731059503  0.0006120045610184  0.8744776028309073
 -0.0000767672133290  0.3333336418606835  0.1246913194118434
  0.0000100170653452  0.3332391151002611  0.3747288126785273
  0.0000265098286577  0.3332119516561800  0.6249873110260005
  0.9998588005149383  0.3333911691568567  0.8749922577613385
  0.0001309926098128  0.6665599959528913  0.1248730675982636
  0.0000990252969060  0.6665770794491788  0.3748758609372215
  0.0000894349271838  0.6665751909440270  0.6249069161851680
  0.0001310850426619  0.6665387874073211  0.8749192486538544
  0.3335732198634621  0.9996996622555310  0.1247346478809555
  0.3333830447126919  0.9998616019408842  0.3747451202748233
  0.3334077235291605  0.9998330667867164  0.6250062285511963
  0.3335188988676825  0.9997514267390636  0.8750233557464659
  0.3326148034436845  0.3325247232785453  0.1251809679762039
  0.3329149404502673  0.3328226133957150  0.3749505186426770
  0.3329224433818598  0.3328353830088543  0.6248089197609906
  0.3326689168630245  0.3325007420377824  0.8745789663522243
  0.3332874686359949  0.6666297893455845  0.1248328498349325
  0.3333471256340081  0.6665935223824374  0.3748485923355809
  0.3333419623434200  0.6666059510559654  0.6248938831004213
  0.3333031678858844  0.6666169193628136  0.8749061319914254
  0.6666617121560230 -0.0000036731672262  0.1248763288813801
  0.6666776720829357  0.9999700256915064  0.3748901730640370
  0.6666804318795287  0.9999642434189112  0.6249138961625330
  0.6666643749285875 -0.0000140270569053  0.8749222385504246
  0.6667399441680436  0.3332062137102294  0.1248447047777773
  0.6667213211432206  0.3332513214043464  0.3748606588505960
  0.6667184585707659  0.3332566977923514  0.6248888841583784
  0.6667625205668483  0.3331911898617310  0.8749062404858516
  0.6666838167192831  0.6664834071813037  0.1249583917140495
  0.6666770106720376  0.6664956061205284  0.3748991575913657
  0.6666789617713579  0.6665108400479383  0.6248971664544419
  0.6666648899500427  0.6665197716347478  0.8748462880643483
  0.2341099941202322  0.2338982970449293  0.1305361511834781
  0.2321495992670707  0.2319306737895120  0.3755417606091117
  0.2321372242875941  0.2319552920921698  0.6241579004665067
  0.2341940593992904  0.2338371309790156  0.8691420385879428
  0.2319124972021727  0.5651451937872720  0.1248145848619285
  0.2317268004520267  0.5654243056504390  0.3750639647247724
  0.2317230782633916  0.5654341836549223  0.6247357767044510
  0.2319151890676884  0.5651482828381131  0.8749841664927466
  0.2319894115743848  0.8980050399691191  0.1251250750104096
  0.2320085504570001  0.8980815025952932  0.3749410405631080
  0.2320211867586918  0.8980635536497187  0.6248746563472587
  0.2319257896691197  0.8980642798208447  0.8746861577477947
  0.5653005026342472  0.2317839717821955  0.1248416287228047
  0.5655735229657584  0.2315954791167991  0.3750833870369300
  0.5655795444067140  0.2315969619751498  0.6247253630450624
  0.5653132244586319  0.2317798106390186  0.8750002754225173
  0.5653064049982203  0.5651854071953895  0.1249212205976484
  0.5652469857610195  0.5651560400485385  0.3748132684641260
  0.5652578214445977  0.5651550715552609  0.6249504258307151
  0.5652976948811120  0.5652040558326068  0.8748581392462698
  0.5654246392099085  0.8982130948619813  0.1249872040449596
  0.5653599581819198  0.8982633132386988  0.3749601766722397
  0.5653395028698301  0.8982757348658137  0.6249021276078519
  0.5654275725265561  0.8982079713454147  0.8748729156870251
  0.8982501023723303  0.2317441703565992  0.1251115506405234
  0.8982258426704282  0.2318769340200806  0.3749210220366283
  0.8982312357765551  0.2318629036989162  0.6248721462353566
  0.8981669352375619  0.2318204876028588  0.8746843214750332
  0.8983885123523918  0.5652771343030191  0.1249726886463248
  0.8984555803105861  0.5651919951885616  0.3749491976060669
  0.8984329272412891  0.5652084262820021  0.6248919864421584
  0.8983912859333441  0.5652635143599291  0.8748690306885009
  0.8981670262925021  0.8980702547616760  0.1249470299505117
  0.8983492354000735  0.8981964384042629  0.3751328608024447
  0.8983279344831746  0.8982238159209152  0.6246671451787709
  0.8981932617702463  0.8980496779306448  0.8748567143663535
  0.2699088480272796  0.0633313956329545  0.9999102260684936
  0.2687722801118987  0.0643551936505214  0.2500293952894925
  0.2685284713439134  0.0646059970615217  0.4998844924248780
  0.2687901383756726  0.0643697436071485  0.7496655479788989
  0.2679742372740191  0.3983942171105096  0.9998455545240036
  0.2688074284010529  0.3995716532008739  0.2507090499459154
  0.2683083333798723  0.3988680943962900  0.4998744917929580
  0.2688153369792098  0.3995593084965072  0.7490682596777147
  0.2682419051877745  0.7318821914013875  0.9998823961964822
  0.2681927545768966  0.7317394543667470  0.2498942763560985
  0.2683538643992914  0.7318750075599200  0.4998871299174164
  0.2681999677774346  0.7317491971203050  0.7499065760937260
  0.6013706723075938  0.0649724429222129  0.9999063245005630
  0.6014901201625641  0.0650203047801414  0.2499063878818443
  0.6013574724369933  0.0648766290738305  0.4999094258859652
  0.6014947256715391  0.0650194867716360  0.7499153549657426
  0.6016494742609972  0.3983066782770719  0.9998895648497876
  0.6015906971467146  0.3983022249388186  0.2499261536755471
  0.6016529460171338  0.3983803814364549  0.4998830096496437
  0.6016035075519082  0.3983061285387611  0.7498712020584950
  0.6016555892915221  0.7317038235226235  0.9999294666056968
  0.6016093100605179  0.7317557651134365  0.2499776990889897
  0.6015891772912412  0.7317774848270205  0.4999125073445384
  0.6015962429338927  0.7317694943527516  0.7498369398213154
  0.9347017504499269  0.0651532046411774  0.9998177074453009
  0.9335942436031731  0.0643902859091830  0.2507237610171248
  0.9343632567272976  0.0649237135039512  0.4998398386141789
  0.9336492021741661  0.0644271523083988  0.7490330134716380
  0.9342250729559320  0.3991572898211982  0.9998987326324442
  0.9345618351698508  0.3988148050124566  0.2499935756415090
  0.9346942803754680  0.3986859473437681  0.4998859736267374
  0.9345426762493797  0.3988327087813837  0.7496918246699882
  0.9350553282953782  0.7316992407838070  0.9999091986080484
  0.9350670033522628  0.7317560451331190  0.2499383229556073
  0.9350107839060747  0.7317071046716077  0.4999022414966098
  0.9350651631366380  0.7317518405631189  0.7498779284893896
  0.0635718601673957  0.2697960653923615  0.9998011313572254
  0.0645913031146285  0.2686703018656714  0.2500633267343384
  0.0647779214558037  0.2683518842734064  0.4998458652612826
  0.0645669448548334  0.2686463642042064  0.7496984154333896
  0.0651184882654574  0.6012617558369925  0.9999116511188213
  0.0651592962239552  0.6013874051140979  0.2499006768858306
  0.0650184639215116  0.6012677163758433  0.4999070273821278
  0.0651596243680155  0.6013945876721043  0.7499028921608744
  0.0652868011829075  0.9346398027242042  0.9998954945114774
  0.0645382954404186  0.9335548067654096  0.2506570810857480
  0.0650267842221660  0.9342431686302125  0.4998640972636717
  0.0645137707455886  0.9335122511808515  0.7490058781903544
  0.3986310916628470  0.2679320954672201  0.9998980361401761
  0.3997352732732291  0.2687460084648255  0.2507101174315464
  0.3990126334949794  0.2682389021962914  0.4998810734215984
  0.3997875443354572  0.2687807505892132  0.7490183141053117
  0.3984101574362944  0.6015385028832606  0.9998932008172779
  0.3983982367664076  0.6014938045020909  0.2499064760404008
  0.3984686380141630  0.6015551118499918  0.4998907237670787
  0.3984043701716912  0.6014939526626344  0.7498569986963370
  0.3993532782035445  0.9340900311173926  0.9998631509454875
  0.3990231020213904  0.9344082543302504  0.2500682914332863
  0.3988635978831361  0.9345390652563182  0.4998775853318622
  0.3989992841490587  0.9344076384113780  0.7497615694791179
  0.7320249935420331  0.2681601157458620  0.9999135175389214
  0.7318906332625292  0.2681263016133414  0.2498839817277657
  0.7320250841376404  0.2682914376769952  0.4998963913267751
  0.7318758698750386  0.2681103321835578  0.7498909819941048
  0.7318705200494651  0.6014984096243801  0.9999010929629202
  0.7319389142027096  0.6014388577444491  0.2499890537748523
  0.7319422646764538  0.6014308636397483  0.4999074960463172
  0.7319219934548451  0.6014523925864859  0.7498476644021711
  0.7318439745979376  0.9349437471375710  0.9999084701614586
  0.7318997793883888  0.9349652105857422  0.2499499184043960
  0.7318478786647887  0.9349083801335726  0.4999026224337722
  0.7318962542305056  0.9349572040086366  0.7498670786489852
  0.0992455047257542  0.0992901543973776  0.1305307231610957
  0.1013326061925064  0.1011720537958689  0.3754949487371537
  0.1013381636128065  0.1011791802245674  0.6242097483963222
  0.0993716624115336  0.0991631185827009  0.8691436891962464
  0.1015544083401077  0.4350325918232291  0.1251194589477096
  0.1014704638147752  0.4349980667564629  0.3749379979519314
  0.1014912414275947  0.4349754212506253  0.6248532005029315
  0.1015108400457758  0.4350740952363352  0.8746594873011672
  0.1016680994578563  0.7678295743769498  0.1248326719633965
  0.1018445947539778  0.7675741119909560  0.3750745866754688
  0.1018519706750780  0.7675573686645796  0.6247381566412319
  0.1016586593168513  0.7678295985435802  0.8750021210628174
  0.4351731936148746  0.1014252734656484  0.1251345588157418
  0.4350874804236036  0.1013856462433934  0.3749426885193234
  0.4351062262233368  0.1013716486586992  0.6248812489542739
  0.4351353466153507  0.1014699417321390  0.8746823508121022
  0.4351412956021975  0.4350836195138996  0.1249049067015782
  0.4350196358643172  0.4349596134167352  0.3751112450640158
  0.4350235559465643  0.4349747047710112  0.6246431528430234
  0.4351645749884447  0.4350803234563882  0.8748485515415146
  0.4350954587606280  0.7678156616118093  0.1249828504126127
  0.4350663349100355  0.7678704331403228  0.3749547931663541
  0.4350521998625005  0.7678882577764284  0.6248968989155829
  0.4351108685797286  0.7678018165185011  0.8748764495981476
  0.7679173852980349  0.1015697905823696  0.1248310744398548
  0.7676380288549858  0.1017754504447129  0.3750856622324333
  0.7676580830342900  0.1017542875638462  0.6247303741689353
  0.7679176424994199  0.1015613111762101  0.8749864618000089
  0.7679400163837707  0.4350012209768229  0.1249777718156527
  0.7680322604870515  0.4349436555801004  0.3749437075943681
  0.7680115477772947  0.4349626330432275  0.6248897008801549
  0.7679556008413464  0.4349882222416733  0.8748668537562582
  0.7680236606849361  0.7678825140800923  0.1249548047872472
  0.7680754249974528  0.7679480311395835  0.3748609983763589
  0.7680807687863396  0.7679471036696746  0.6249600198069019
  0.7680150382218963  0.7678980112321762  0.8748737806844415
  0.1667188080881579  0.1665258801842615  0.9998297442123348
 
  0.00000000E+00  0.00000000E+00  0.00000000E+00
  0.00000000E+00  0.00000000E+00  0.00000000E+00
  0.00000000E+00  0.00000000E+00  0.00000000E+00
  0.00000000E+00  0.00000000E+00  0.00000000E+00
  0.00000000E+00  0.00000000E+00  0.00000000E+00
  0.00000000E+00  0.00000000E+00  0.00000000E+00
  0.00000000E+00  0.00000000E+00  0.00000000E+00
  0.00000000E+00  0.00000000E+00  0.00000000E+00
  0.00000000E+00  0.00000000E+00  0.00000000E+00
  0.00000000E+00  0.00000000E+00  0.00000000E+00
  0.00000000E+00  0.00000000E+00  0.00000000E+00
  0.00000000E+00  0.00000000E+00  0.00000000E+00
  0.00000000E+00  0.00000000E+00  0.00000000E+00
  0.00000000E+00  0.00000000E+00  0.00000000E+00
  0.00000000E+00  0.00000000E+00  0.00000000E+00
  0.00000000E+00  0.00000000E+00  0.00000000E+00
  0.00000000E+00  0.00000000E+00  0.00000000E+00
  0.00000000E+00  0.00000000E+00  0.00000000E+00
  0.00000000E+00  0.00000000E+00  0.00000000E+00
  0.00000000E+00  0.00000000E+00  0.00000000E+00
  0.00000000E+00  0.00000000E+00  0.00000000E+00
  0.00000000E+00  0.00000000E+00  0.00000000E+00
  0.00000000E+00  0.00000000E+00  0.00000000E+00
  0.00000000E+00  0.00000000E+00  0.00000000E+00
  0.00000000E+00  0.00000000E+00  0.00000000E+00
  0.00000000E+00  0.00000000E+00  0.00000000E+00
  0.00000000E+00  0.00000000E+00  0.00000000E+00
  0.00000000E+00  0.00000000E+00  0.00000000E+00
  0.00000000E+00  0.00000000E+00  0.00000000E+00
  0.00000000E+00  0.00000000E+00  0.00000000E+00
  0.00000000E+00  0.00000000E+00  0.00000000E+00
  0.00000000E+00  0.00000000E+00  0.00000000E+00
  0.00000000E+00  0.00000000E+00  0.00000000E+00
  0.00000000E+00  0.00000000E+00  0.00000000E+00
  0.00000000E+00  0.00000000E+00  0.00000000E+00
  0.00000000E+00  0.00000000E+00  0.00000000E+00
  0.00000000E+00  0.00000000E+00  0.00000000E+00
  0.00000000E+00  0.00000000E+00  0.00000000E+00
  0.00000000E+00  0.00000000E+00  0.00000000E+00
  0.00000000E+00  0.00000000E+00  0.00000000E+00
  0.00000000E+00  0.00000000E+00  0.00000000E+00
  0.00000000E+00  0.00000000E+00  0.00000000E+00
  0.00000000E+00  0.00000000E+00  0.00000000E+00
  0.00000000E+00  0.00000000E+00  0.00000000E+00
  0.00000000E+00  0.00000000E+00  0.00000000E+00
  0.00000000E+00  0.00000000E+00  0.00000000E+00
  0.00000000E+00  0.00000000E+00  0.00000000E+00
  0.00000000E+00  0.00000000E+00  0.00000000E+00
  0.00000000E+00  0.00000000E+00  0.00000000E+00
  0.00000000E+00  0.00000000E+00  0.00000000E+00
  0.00000000E+00  0.00000000E+00  0.00000000E+00
  0.00000000E+00  0.00000000E+00  0.00000000E+00
  0.00000000E+00  0.00000000E+00  0.00000000E+00
  0.00000000E+00  0.00000000E+00  0.00000000E+00
  0.00000000E+00  0.00000000E+00  0.00000000E+00
  0.00000000E+00  0.00000000E+00  0.00000000E+00
  0.00000000E+00  0.00000000E+00  0.00000000E+00
  0.00000000E+00  0.00000000E+00  0.00000000E+00
  0.00000000E+00  0.00000000E+00  0.00000000E+00
  0.00000000E+00  0.00000000E+00  0.00000000E+00
  0.00000000E+00  0.00000000E+00  0.00000000E+00
  0.00000000E+00  0.00000000E+00  0.00000000E+00
  0.00000000E+00  0.00000000E+00  0.00000000E+00
  0.00000000E+00  0.00000000E+00  0.00000000E+00
  0.00000000E+00  0.00000000E+00  0.00000000E+00
  0.00000000E+00  0.00000000E+00  0.00000000E+00
  0.00000000E+00  0.00000000E+00  0.00000000E+00
  0.00000000E+00  0.00000000E+00  0.00000000E+00
  0.00000000E+00  0.00000000E+00  0.00000000E+00
  0.00000000E+00  0.00000000E+00  0.00000000E+00
  0.00000000E+00  0.00000000E+00  0.00000000E+00
  0.00000000E+00  0.00000000E+00  0.00000000E+00
  0.00000000E+00  0.00000000E+00  0.00000000E+00
  0.00000000E+00  0.00000000E+00  0.00000000E+00
  0.00000000E+00  0.00000000E+00  0.00000000E+00
  0.00000000E+00  0.00000000E+00  0.00000000E+00
  0.00000000E+00  0.00000000E+00  0.00000000E+00
  0.00000000E+00  0.00000000E+00  0.00000000E+00
  0.00000000E+00  0.00000000E+00  0.00000000E+00
  0.00000000E+00  0.00000000E+00  0.00000000E+00
  0.00000000E+00  0.00000000E+00  0.00000000E+00
  0.00000000E+00  0.00000000E+00  0.00000000E+00
  0.00000000E+00  0.00000000E+00  0.00000000E+00
  0.00000000E+00  0.00000000E+00  0.00000000E+00
  0.00000000E+00  0.00000000E+00  0.00000000E+00
  0.00000000E+00  0.00000000E+00  0.00000000E+00
  0.00000000E+00  0.00000000E+00  0.00000000E+00
  0.00000000E+00  0.00000000E+00  0.00000000E+00
  0.00000000E+00  0.00000000E+00  0.00000000E+00
  0.00000000E+00  0.00000000E+00  0.00000000E+00
  0.00000000E+00  0.00000000E+00  0.00000000E+00
  0.00000000E+00  0.00000000E+00  0.00000000E+00
  0.00000000E+00  0.00000000E+00  0.00000000E+00
  0.00000000E+00  0.00000000E+00  0.00000000E+00
  0.00000000E+00  0.00000000E+00  0.00000000E+00
  0.00000000E+00  0.00000000E+00  0.00000000E+00
  0.00000000E+00  0.00000000E+00  0.00000000E+00
  0.00000000E+00  0.00000000E+00  0.00000000E+00
  0.00000000E+00  0.00000000E+00  0.00000000E+00
  0.00000000E+00  0.00000000E+00  0.00000000E+00
  0.00000000E+00  0.00000000E+00  0.00000000E+00
  0.00000000E+00  0.00000000E+00  0.00000000E+00
  0.00000000E+00  0.00000000E+00  0.00000000E+00
  0.00000000E+00  0.00000000E+00  0.00000000E+00
  0.00000000E+00  0.00000000E+00  0.00000000E+00
  0.00000000E+00  0.00000000E+00  0.00000000E+00
  0.00000000E+00  0.00000000E+00  0.00000000E+00
  0.00000000E+00  0.00000000E+00  0.00000000E+00
  0.00000000E+00  0.00000000E+00  0.00000000E+00
  0.00000000E+00  0.00000000E+00  0.00000000E+00
  0.00000000E+00  0.00000000E+00  0.00000000E+00
  0.00000000E+00  0.00000000E+00  0.00000000E+00
  0.00000000E+00  0.00000000E+00  0.00000000E+00
  0.00000000E+00  0.00000000E+00  0.00000000E+00
  0.00000000E+00  0.00000000E+00  0.00000000E+00
  0.00000000E+00  0.00000000E+00  0.00000000E+00
  0.00000000E+00  0.00000000E+00  0.00000000E+00
  0.00000000E+00  0.00000000E+00  0.00000000E+00
  0.00000000E+00  0.00000000E+00  0.00000000E+00
  0.00000000E+00  0.00000000E+00  0.00000000E+00
  0.00000000E+00  0.00000000E+00  0.00000000E+00
  0.00000000E+00  0.00000000E+00  0.00000000E+00
  0.00000000E+00  0.00000000E+00  0.00000000E+00
  0.00000000E+00  0.00000000E+00  0.00000000E+00
  0.00000000E+00  0.00000000E+00  0.00000000E+00
  0.00000000E+00  0.00000000E+00  0.00000000E+00
  0.00000000E+00  0.00000000E+00  0.00000000E+00
  0.00000000E+00  0.00000000E+00  0.00000000E+00
  0.00000000E+00  0.00000000E+00  0.00000000E+00
  0.00000000E+00  0.00000000E+00  0.00000000E+00
  0.00000000E+00  0.00000000E+00  0.00000000E+00
  0.00000000E+00  0.00000000E+00  0.00000000E+00
  0.00000000E+00  0.00000000E+00  0.00000000E+00
  0.00000000E+00  0.00000000E+00  0.00000000E+00
  0.00000000E+00  0.00000000E+00  0.00000000E+00
  0.00000000E+00  0.00000000E+00  0.00000000E+00
  0.00000000E+00  0.00000000E+00  0.00000000E+00
  0.00000000E+00  0.00000000E+00  0.00000000E+00
  0.00000000E+00  0.00000000E+00  0.00000000E+00
  0.00000000E+00  0.00000000E+00  0.00000000E+00
  0.00000000E+00  0.00000000E+00  0.00000000E+00
  0.00000000E+00  0.00000000E+00  0.00000000E+00
  0.00000000E+00  0.00000000E+00  0.00000000E+00
  0.00000000E+00  0.00000000E+00  0.00000000E+00
  0.00000000E+00  0.00000000E+00  0.00000000E+00
  0.00000000E+00  0.00000000E+00  0.00000000E+00
  0.00000000E+00  0.00000000E+00  0.00000000E+00
  0.00000000E+00  0.00000000E+00  0.00000000E+00
  0.00000000E+00  0.00000000E+00  0.00000000E+00
  0.00000000E+00  0.00000000E+00  0.00000000E+00
  0.00000000E+00  0.00000000E+00  0.00000000E+00
  0.00000000E+00  0.00000000E+00  0.00000000E+00
  0.00000000E+00  0.00000000E+00  0.00000000E+00
  0.00000000E+00  0.00000000E+00  0.00000000E+00
  0.00000000E+00  0.00000000E+00  0.00000000E+00
  0.00000000E+00  0.00000000E+00  0.00000000E+00
  0.00000000E+00  0.00000000E+00  0.00000000E+00
  0.00000000E+00  0.00000000E+00  0.00000000E+00
  0.00000000E+00  0.00000000E+00  0.00000000E+00
  0.00000000E+00  0.00000000E+00  0.00000000E+00
  0.00000000E+00  0.00000000E+00  0.00000000E+00
  0.00000000E+00  0.00000000E+00  0.00000000E+00
  0.00000000E+00  0.00000000E+00  0.00000000E+00
  0.00000000E+00  0.00000000E+00  0.00000000E+00
  0.00000000E+00  0.00000000E+00  0.00000000E+00
  0.00000000E+00  0.00000000E+00  0.00000000E+00
  0.00000000E+00  0.00000000E+00  0.00000000E+00
  0.00000000E+00  0.00000000E+00  0.00000000E+00
  0.00000000E+00  0.00000000E+00  0.00000000E+00
  0.00000000E+00  0.00000000E+00  0.00000000E+00
  0.00000000E+00  0.00000000E+00  0.00000000E+00
  0.00000000E+00  0.00000000E+00  0.00000000E+00
  0.00000000E+00  0.00000000E+00  0.00000000E+00
  0.00000000E+00  0.00000000E+00  0.00000000E+00
  0.00000000E+00  0.00000000E+00  0.00000000E+00
  0.00000000E+00  0.00000000E+00  0.00000000E+00
  0.00000000E+00  0.00000000E+00  0.00000000E+00
  0.00000000E+00  0.00000000E+00  0.00000000E+00
  0.00000000E+00  0.00000000E+00  0.00000000E+00
  0.00000000E+00  0.00000000E+00  0.00000000E+00
  0.00000000E+00  0.00000000E+00  0.00000000E+00
  0.00000000E+00  0.00000000E+00  0.00000000E+00
  0.00000000E+00  0.00000000E+00  0.00000000E+00
  0.00000000E+00  0.00000000E+00  0.00000000E+00
  0.00000000E+00  0.00000000E+00  0.00000000E+00
  0.00000000E+00  0.00000000E+00  0.00000000E+00
  0.00000000E+00  0.00000000E+00  0.00000000E+00
  0.00000000E+00  0.00000000E+00  0.00000000E+00
  0.00000000E+00  0.00000000E+00  0.00000000E+00
  0.00000000E+00  0.00000000E+00  0.00000000E+00
  0.00000000E+00  0.00000000E+00  0.00000000E+00
  0.00000000E+00  0.00000000E+00  0.00000000E+00
  0.00000000E+00  0.00000000E+00  0.00000000E+00
  0.00000000E+00  0.00000000E+00  0.00000000E+00
  0.00000000E+00  0.00000000E+00  0.00000000E+00
  0.00000000E+00  0.00000000E+00  0.00000000E+00
  0.00000000E+00  0.00000000E+00  0.00000000E+00
  0.00000000E+00  0.00000000E+00  0.00000000E+00
  0.00000000E+00  0.00000000E+00  0.00000000E+00
  0.00000000E+00  0.00000000E+00  0.00000000E+00
  0.00000000E+00  0.00000000E+00  0.00000000E+00
  0.00000000E+00  0.00000000E+00  0.00000000E+00
  0.00000000E+00  0.00000000E+00  0.00000000E+00
  0.00000000E+00  0.00000000E+00  0.00000000E+00
  0.00000000E+00  0.00000000E+00  0.00000000E+00
  0.00000000E+00  0.00000000E+00  0.00000000E+00
  0.00000000E+00  0.00000000E+00  0.00000000E+00
  0.00000000E+00  0.00000000E+00  0.00000000E+00
  0.00000000E+00  0.00000000E+00  0.00000000E+00
  0.00000000E+00  0.00000000E+00  0.00000000E+00
  0.00000000E+00  0.00000000E+00  0.00000000E+00
  0.00000000E+00  0.00000000E+00  0.00000000E+00
  0.00000000E+00  0.00000000E+00  0.00000000E+00
  0.00000000E+00  0.00000000E+00  0.00000000E+00
  0.00000000E+00  0.00000000E+00  0.00000000E+00
  0.00000000E+00  0.00000000E+00  0.00000000E+00
