Ti27 Pb27 O81                           
   1.00000000000000     
    11.8378881194000005    0.0000000000000000    0.0000000000000000
     0.0000000000000000   11.8378881194000005    0.0000000000000000
     0.0000000000000000    0.0000000000000000   11.8830659890000003
   Pb   Ti   O 
    27    27    81
Direct
  0.0000000000000000  0.0000000000000000  0.0055112151364845
  0.0000000000000000  0.0000000000000000  0.3388445484364815
  0.0000000000000000  0.0000000000000000  0.6721778818364803
  0.0000000000000000  0.3333333332999970  0.0055112151364845
  0.0000000000000000  0.3333333332999970  0.3388445484364815
  0.0000000000000000  0.3333333332999970  0.6721778818364803
  0.0000000000000000  0.6666666667000030  0.0055112151364845
  0.0000000000000000  0.6666666667000030  0.3388445484364815
  0.0000000000000000  0.6666666667000030  0.6721778818364803
  0.3333333332999970  0.0000000000000000  0.0055112151364845
  0.3333333332999970  0.0000000000000000  0.3388445484364815
  0.3333333332999970  0.0000000000000000  0.6721778818364803
  0.3333333332999970  0.3333333332999970  0.0055112151364845
  0.3333333332999970  0.3333333332999970  0.3388445484364815
  0.3333333332999970  0.3333333332999970  0.6721778818364803
  0.3333333332999970  0.6666666667000030  0.0055112151364845
  0.3333333332999970  0.6666666667000030  0.3388445484364815
  0.3333333332999970  0.6666666667000030  0.6721778818364803
  0.6666666667000030  0.0000000000000000  0.0055112151364845
  0.6666666667000030  0.0000000000000000  0.3388445484364815
  0.6666666667000030  0.0000000000000000  0.6721778818364803
  0.6666666667000030  0.3333333332999970  0.0055112151364845
  0.6666666667000030  0.3333333332999970  0.3388445484364815
  0.6666666667000030  0.3333333332999970  0.6721778818364803
  0.6666666667000030  0.6666666667000030  0.0055112151364845
  0.6666666667000030  0.6666666667000030  0.3388445484364815
  0.6666666667000030  0.6666666667000030  0.6721778818364803
  0.1666666667000030  0.1666666667000030  0.1871677042194380
  0.1666666667000030  0.1666666667000030  0.5205010375194351
  0.1666666667000030  0.1666666667000030  0.8538343709194339
  0.1666666667000030  0.5000000000000000  0.1871677042194380
  0.1666666667000030  0.5000000000000000  0.5205010375194351
  0.1666666667000030  0.5000000000000000  0.8538343709194339
  0.1666666667000030  0.8333333332999970  0.1871677042194380
  0.1666666667000030  0.8333333332999970  0.5205010375194351
  0.1666666667000030  0.8333333332999970  0.8538343709194339
  0.5000000000000000  0.1666666667000030  0.1871677042194380
  0.5000000000000000  0.1666666667000030  0.5205010375194351
  0.5000000000000000  0.1666666667000030  0.8538343709194339
  0.5000000000000000  0.5000000000000000  0.1871677042194380
  0.5000000000000000  0.5000000000000000  0.5205010375194351
  0.5000000000000000  0.5000000000000000  0.8538343709194339
  0.5000000000000000  0.8333333332999970  0.1871677042194380
  0.5000000000000000  0.8333333332999970  0.5205010375194351
  0.5000000000000000  0.8333333332999970  0.8538343709194339
  0.8333333332999970  0.1666666667000030  0.1871677042194380
  0.8333333332999970  0.1666666667000030  0.5205010375194351
  0.8333333332999970  0.1666666667000030  0.8538343709194339
  0.8333333332999970  0.5000000000000000  0.1871677042194380
  0.8333333332999970  0.5000000000000000  0.5205010375194351
  0.8333333332999970  0.5000000000000000  0.8538343709194339
  0.8333333332999970  0.8333333332999970  0.1871677042194380
  0.8333333332999970  0.8333333332999970  0.5205010375194351
  0.8333333332999970  0.8333333332999970  0.8538343709194339
  0.1666666667000030  0.1666666667000030  0.0300660096766855
  0.1666666667000030  0.1666666667000030  0.3633993429766825
  0.1666666667000030  0.1666666667000030  0.6967326763766813
  0.1666666667000030  0.5000000000000000  0.0300660096766856
  0.1666666667000030  0.5000000000000000  0.3633993429766825
  0.1666666667000030  0.5000000000000000  0.6967326763766813
  0.1666666667000030  0.8333333332999970  0.0300660096766855
  0.1666666667000030  0.8333333332999970  0.3633993429766825
  0.1666666667000030  0.8333333332999970  0.6967326763766813
  0.5000000000000000  0.1666666667000030  0.0300660096766856
  0.5000000000000000  0.1666666667000030  0.3633993429766825
  0.5000000000000000  0.1666666667000030  0.6967326763766813
  0.5000000000000000  0.5000000000000000  0.0300660096766856
  0.5000000000000000  0.5000000000000000  0.3633993429766825
  0.5000000000000000  0.5000000000000000  0.6967326763766813
  0.5000000000000000  0.8333333332999970  0.0300660096766855
  0.5000000000000000  0.8333333332999970  0.3633993429766825
  0.5000000000000000  0.8333333332999970  0.6967326763766813
  0.8333333332999970  0.1666666667000030  0.0300660096766856
  0.8333333332999970  0.1666666667000030  0.3633993429766825
  0.8333333332999970  0.1666666667000030  0.6967326763766813
  0.8333333332999970  0.5000000000000000  0.0300660096766855
  0.8333333332999970  0.5000000000000000  0.3633993429766825
  0.8333333332999970  0.5000000000000000  0.6967326763766813
  0.8333333332999970  0.8333333332999970  0.0300660096766856
  0.8333333332999970  0.8333333332999970  0.3633993429766825
  0.8333333332999970  0.8333333332999970  0.6967326763766813
  0.1666666667000030  0.0000000000000000  0.2048608761837015
  0.1666666667000030  0.0000000000000000  0.5381942094836987
  0.1666666667000030 -0.0000000000000000  0.8715275427837028
  0.1666666667000030  0.3333333332999970  0.2048608761837015
  0.1666666667000030  0.3333333332999970  0.5381942094836987
  0.1666666667000030  0.3333333332999970  0.8715275427837028
  0.1666666667000030  0.6666666667000030  0.2048608761837015
  0.1666666667000030  0.6666666667000030  0.5381942094836987
  0.1666666667000030  0.6666666667000030  0.8715275427837028
  0.5000000000000000 -0.0000000000000000  0.2048608761837015
  0.5000000000000000  0.0000000000000000  0.5381942094836987
  0.5000000000000000 -0.0000000000000000  0.8715275427837028
  0.5000000000000000  0.3333333332999970  0.2048608761837015
  0.5000000000000000  0.3333333332999970  0.5381942094836987
  0.5000000000000000  0.3333333332999970  0.8715275427837028
  0.5000000000000000  0.6666666667000030  0.2048608761837015
  0.5000000000000000  0.6666666667000030  0.5381942094836987
  0.5000000000000000  0.6666666667000030  0.8715275427837028
  0.8333333332999970 -0.0000000000000000  0.2048608761837015
  0.8333333332999970 -0.0000000000000000  0.5381942094836987
  0.8333333332999970 -0.0000000000000000  0.8715275427837028
  0.8333333332999970  0.3333333332999970  0.2048608761837015
  0.8333333332999970  0.3333333332999970  0.5381942094836987
  0.8333333332999970  0.3333333332999970  0.8715275427837028
  0.8333333332999970  0.6666666667000030  0.2048608761837015
  0.8333333332999970  0.6666666667000030  0.5381942094836987
  0.8333333332999970  0.6666666667000030  0.8715275427837028
  0.0000000000000000  0.1666666667000030  0.2048608761837015
  0.0000000000000000  0.1666666667000030  0.5381942094836987
  0.0000000000000000  0.1666666667000030  0.8715275427837028
  0.0000000000000000  0.5000000000000000  0.2048608761837015
  0.0000000000000000  0.5000000000000000  0.5381942094836987
  0.0000000000000000  0.5000000000000000  0.8715275427837028
  0.0000000000000000  0.8333333332999970  0.2048608761837015
 -0.0000000000000000  0.8333333332999970  0.5381942094836987
  0.0000000000000000  0.8333333332999970  0.8715275427837028
  0.3333333332999970  0.1666666667000030  0.2048608761837015
  0.3333333332999970  0.1666666667000030  0.5381942094836987
  0.3333333332999970  0.1666666667000030  0.8715275427837028
  0.3333333332999970  0.5000000000000000  0.2048608761837015
  0.3333333332999970  0.5000000000000000  0.5381942094836987
  0.3333333332999970  0.5000000000000000  0.8715275427837028
  0.3333333332999970  0.8333333332999970  0.2048608761837015
  0.3333333332999970  0.8333333332999970  0.5381942094836987
  0.3333333332999970  0.8333333332999970  0.8715275427837028
  0.6666666667000030  0.1666666667000030  0.2048608761837015
  0.6666666667000030  0.1666666667000030  0.5381942094836987
  0.6666666667000030  0.1666666667000030  0.8715275427837028
  0.6666666667000030  0.5000000000000000  0.2048608761837015
  0.6666666667000030  0.5000000000000000  0.5381942094836987
  0.6666666667000030  0.5000000000000000  0.8715275427837028
  0.6666666667000030  0.8333333332999970  0.2048608761837015
  0.6666666667000030  0.8333333332999970  0.5381942094836987
  0.6666666667000030  0.8333333332999970  0.8715275427837028
 
  0.00000000E+00  0.00000000E+00  0.00000000E+00
  0.00000000E+00  0.00000000E+00  0.00000000E+00
  0.00000000E+00  0.00000000E+00  0.00000000E+00
  0.00000000E+00  0.00000000E+00  0.00000000E+00
  0.00000000E+00  0.00000000E+00  0.00000000E+00
  0.00000000E+00  0.00000000E+00  0.00000000E+00
  0.00000000E+00  0.00000000E+00  0.00000000E+00
  0.00000000E+00  0.00000000E+00  0.00000000E+00
  0.00000000E+00  0.00000000E+00  0.00000000E+00
  0.00000000E+00  0.00000000E+00  0.00000000E+00
  0.00000000E+00  0.00000000E+00  0.00000000E+00
  0.00000000E+00  0.00000000E+00  0.00000000E+00
  0.00000000E+00  0.00000000E+00  0.00000000E+00
  0.00000000E+00  0.00000000E+00  0.00000000E+00
  0.00000000E+00  0.00000000E+00  0.00000000E+00
  0.00000000E+00  0.00000000E+00  0.00000000E+00
  0.00000000E+00  0.00000000E+00  0.00000000E+00
  0.00000000E+00  0.00000000E+00  0.00000000E+00
  0.00000000E+00  0.00000000E+00  0.00000000E+00
  0.00000000E+00  0.00000000E+00  0.00000000E+00
  0.00000000E+00  0.00000000E+00  0.00000000E+00
  0.00000000E+00  0.00000000E+00  0.00000000E+00
  0.00000000E+00  0.00000000E+00  0.00000000E+00
  0.00000000E+00  0.00000000E+00  0.00000000E+00
  0.00000000E+00  0.00000000E+00  0.00000000E+00
  0.00000000E+00  0.00000000E+00  0.00000000E+00
  0.00000000E+00  0.00000000E+00  0.00000000E+00
  0.00000000E+00  0.00000000E+00  0.00000000E+00
  0.00000000E+00  0.00000000E+00  0.00000000E+00
  0.00000000E+00  0.00000000E+00  0.00000000E+00
  0.00000000E+00  0.00000000E+00  0.00000000E+00
  0.00000000E+00  0.00000000E+00  0.00000000E+00
  0.00000000E+00  0.00000000E+00  0.00000000E+00
  0.00000000E+00  0.00000000E+00  0.00000000E+00
  0.00000000E+00  0.00000000E+00  0.00000000E+00
  0.00000000E+00  0.00000000E+00  0.00000000E+00
  0.00000000E+00  0.00000000E+00  0.00000000E+00
  0.00000000E+00  0.00000000E+00  0.00000000E+00
  0.00000000E+00  0.00000000E+00  0.00000000E+00
  0.00000000E+00  0.00000000E+00  0.00000000E+00
  0.00000000E+00  0.00000000E+00  0.00000000E+00
  0.00000000E+00  0.00000000E+00  0.00000000E+00
  0.00000000E+00  0.00000000E+00  0.00000000E+00
  0.00000000E+00  0.00000000E+00  0.00000000E+00
  0.00000000E+00  0.00000000E+00  0.00000000E+00
  0.00000000E+00  0.00000000E+00  0.00000000E+00
  0.00000000E+00  0.00000000E+00  0.00000000E+00
  0.00000000E+00  0.00000000E+00  0.00000000E+00
  0.00000000E+00  0.00000000E+00  0.00000000E+00
  0.00000000E+00  0.00000000E+00  0.00000000E+00
  0.00000000E+00  0.00000000E+00  0.00000000E+00
  0.00000000E+00  0.00000000E+00  0.00000000E+00
  0.00000000E+00  0.00000000E+00  0.00000000E+00
  0.00000000E+00  0.00000000E+00  0.00000000E+00
  0.00000000E+00  0.00000000E+00  0.00000000E+00
  0.00000000E+00  0.00000000E+00  0.00000000E+00
  0.00000000E+00  0.00000000E+00  0.00000000E+00
  0.00000000E+00  0.00000000E+00  0.00000000E+00
  0.00000000E+00  0.00000000E+00  0.00000000E+00
  0.00000000E+00  0.00000000E+00  0.00000000E+00
  0.00000000E+00  0.00000000E+00  0.00000000E+00
  0.00000000E+00  0.00000000E+00  0.00000000E+00
  0.00000000E+00  0.00000000E+00  0.00000000E+00
  0.00000000E+00  0.00000000E+00  0.00000000E+00
  0.00000000E+00  0.00000000E+00  0.00000000E+00
  0.00000000E+00  0.00000000E+00  0.00000000E+00
  0.00000000E+00  0.00000000E+00  0.00000000E+00
  0.00000000E+00  0.00000000E+00  0.00000000E+00
  0.00000000E+00  0.00000000E+00  0.00000000E+00
  0.00000000E+00  0.00000000E+00  0.00000000E+00
  0.00000000E+00  0.00000000E+00  0.00000000E+00
  0.00000000E+00  0.00000000E+00  0.00000000E+00
  0.00000000E+00  0.00000000E+00  0.00000000E+00
  0.00000000E+00  0.00000000E+00  0.00000000E+00
  0.00000000E+00  0.00000000E+00  0.00000000E+00
  0.00000000E+00  0.00000000E+00  0.00000000E+00
  0.00000000E+00  0.00000000E+00  0.00000000E+00
  0.00000000E+00  0.00000000E+00  0.00000000E+00
  0.00000000E+00  0.00000000E+00  0.00000000E+00
  0.00000000E+00  0.00000000E+00  0.00000000E+00
  0.00000000E+00  0.00000000E+00  0.00000000E+00
  0.00000000E+00  0.00000000E+00  0.00000000E+00
  0.00000000E+00  0.00000000E+00  0.00000000E+00
  0.00000000E+00  0.00000000E+00  0.00000000E+00
  0.00000000E+00  0.00000000E+00  0.00000000E+00
  0.00000000E+00  0.00000000E+00  0.00000000E+00
  0.00000000E+00  0.00000000E+00  0.00000000E+00
  0.00000000E+00  0.00000000E+00  0.00000000E+00
  0.00000000E+00  0.00000000E+00  0.00000000E+00
  0.00000000E+00  0.00000000E+00  0.00000000E+00
  0.00000000E+00  0.00000000E+00  0.00000000E+00
  0.00000000E+00  0.00000000E+00  0.00000000E+00
  0.00000000E+00  0.00000000E+00  0.00000000E+00
  0.00000000E+00  0.00000000E+00  0.00000000E+00
  0.00000000E+00  0.00000000E+00  0.00000000E+00
  0.00000000E+00  0.00000000E+00  0.00000000E+00
  0.00000000E+00  0.00000000E+00  0.00000000E+00
  0.00000000E+00  0.00000000E+00  0.00000000E+00
  0.00000000E+00  0.00000000E+00  0.00000000E+00
  0.00000000E+00  0.00000000E+00  0.00000000E+00
  0.00000000E+00  0.00000000E+00  0.00000000E+00
  0.00000000E+00  0.00000000E+00  0.00000000E+00
  0.00000000E+00  0.00000000E+00  0.00000000E+00
  0.00000000E+00  0.00000000E+00  0.00000000E+00
  0.00000000E+00  0.00000000E+00  0.00000000E+00
  0.00000000E+00  0.00000000E+00  0.00000000E+00
  0.00000000E+00  0.00000000E+00  0.00000000E+00
  0.00000000E+00  0.00000000E+00  0.00000000E+00
  0.00000000E+00  0.00000000E+00  0.00000000E+00
  0.00000000E+00  0.00000000E+00  0.00000000E+00
  0.00000000E+00  0.00000000E+00  0.00000000E+00
  0.00000000E+00  0.00000000E+00  0.00000000E+00
  0.00000000E+00  0.00000000E+00  0.00000000E+00
  0.00000000E+00  0.00000000E+00  0.00000000E+00
  0.00000000E+00  0.00000000E+00  0.00000000E+00
  0.00000000E+00  0.00000000E+00  0.00000000E+00
  0.00000000E+00  0.00000000E+00  0.00000000E+00
  0.00000000E+00  0.00000000E+00  0.00000000E+00
  0.00000000E+00  0.00000000E+00  0.00000000E+00
  0.00000000E+00  0.00000000E+00  0.00000000E+00
  0.00000000E+00  0.00000000E+00  0.00000000E+00
  0.00000000E+00  0.00000000E+00  0.00000000E+00
  0.00000000E+00  0.00000000E+00  0.00000000E+00
  0.00000000E+00  0.00000000E+00  0.00000000E+00
  0.00000000E+00  0.00000000E+00  0.00000000E+00
  0.00000000E+00  0.00000000E+00  0.00000000E+00
  0.00000000E+00  0.00000000E+00  0.00000000E+00
  0.00000000E+00  0.00000000E+00  0.00000000E+00
  0.00000000E+00  0.00000000E+00  0.00000000E+00
  0.00000000E+00  0.00000000E+00  0.00000000E+00
  0.00000000E+00  0.00000000E+00  0.00000000E+00
  0.00000000E+00  0.00000000E+00  0.00000000E+00
  0.00000000E+00  0.00000000E+00  0.00000000E+00
  0.00000000E+00  0.00000000E+00  0.00000000E+00
  0.00000000E+00  0.00000000E+00  0.00000000E+00
