Ca32 Ti32 O96                       
   1.00000000000000     
  10.9705905016578065    0.0000000000000000    0.0000000000000000
   0.0000000000000000   15.2696278713035447    0.0000000000000000
   0.0000000000000000    0.0000000000000000   10.7054226450466157
   Ca   Ti   O    Ti
    32    31    96     1
Direct
  0.2750225125868511  0.3754067879167238  0.0057192018823571
  0.2750494636356891  0.3741477419950670  0.5050147862015564
  0.2748980949539117  0.8747186332009278  0.0057425339837209
  0.2748913652236240  0.8753758041470689  0.5050094139277235
  0.7743241351344778  0.3744776548956494  0.0053892113060954
  0.7744271798622009  0.3744919966242435  0.5057465717279825
  0.7744391414659049  0.8752016600525963  0.0055187550613454
  0.7745314127940190  0.8749790034307594  0.5056459984910546
  0.2249988883708696  0.1245979847192089  0.4940723616519236
  0.2249742073435499  0.1258762994600033  0.9948620303483509
  0.2250860416515437  0.6252603192424502  0.4941367158586729
  0.2251164141287418  0.6246113781272911  0.9948575367466290
  0.7257023543615730  0.1255182157878210  0.4944664875909339
  0.7255787321086586  0.1255010455162093  0.9941207789360149
  0.7255607962856843  0.6247943918594601  0.4943904624201565
  0.7254486688340762  0.6250086046931287  0.9942178197691547
  0.0271106484631503  0.3733958491208114  0.2431165130463242
  0.0244712058629375  0.3745304495698960  0.7433236735159454
  0.0249557837436072  0.8752374476430802  0.2444354708807097
  0.0246908201746194  0.8751798676605844  0.7441051841309445
  0.5242586623325778  0.3751433712384795  0.2446003217525359
  0.5252904303433041  0.3749240749205001  0.7433154704105362
  0.5243556108936716  0.8747910553137359  0.2447603442686557
  0.5247951233614074  0.8750642161213591  0.7438029166018154
  0.4729284820971102  0.1265525854216278  0.2567214352977416
  0.4755399915926404  0.1254543423736436  0.7564831658103159
  0.4750388382660589  0.6247478490755398  0.2554168938887571
  0.4753034186475276  0.6248431943954884  0.7557663205769529
  0.9757669196485068  0.1248573070982104  0.2552121844808326
  0.9747169660246087  0.1250353735757770  0.7564521441999190
  0.9756422105935698  0.6252171610639365  0.2551116694090823
  0.9752161488236766  0.6249101197375140  0.7560790259104522
  0.2500138154092042  0.2499899740532641  0.7499107053296328
  0.2499974559479270  0.7499911864480850  0.2499404411560562
  0.2499914653807664  0.7499968310180662  0.7499487514917007
  0.7500252173784645  0.2499920811975826  0.2499326532180106
  0.7500183420937887  0.2499895684701130  0.7499353127942996
  0.7499975251343542  0.7499895643826093  0.2499580178037846
  0.7500050653143902  0.7499970303575978  0.7499561450356964
  0.2501812701958386  0.0000788544061194  0.2488839565931116
  0.2501182748081163  0.0000975665727410  0.7501010701510396
  0.2498394635117549  0.4999062335084474  0.2509698489069976
  0.2498812202603204  0.4999027714632831  0.7497452848005324
  0.7495707381864491  0.0001651668982916  0.2499961828463668
  0.7497803015035700  0.9999306727008985  0.7499074535616401
  0.7504455640156280  0.4998332383021662  0.2498939763961801
  0.7502179705544663  0.5000620143850298  0.7499767169081366
  0.0009561133877085  0.2506911766739321  0.9994824389017793
  0.0002584169201398  0.2496793967233515  0.4994554603589805
  0.9999151651855982  0.7501416145131543  0.9998491307758144
  0.9999496669245289  0.7499571478686420  0.5000810767163202
  0.4997906836017947  0.2503331644082394  0.0003714723852326
  0.4990852798658736  0.2492933683293117  0.5003038293727897
  0.5000658802537927  0.7500559381850991  0.9998328200755751
  0.5000552167368824  0.7498436819536849  0.5000496768547364
  0.9999989817426922  0.9998626035334013  0.0000911906337322
  0.9999081008392707  0.0000509243621565  0.5000563022181552
  0.9999064214912678  0.4997533683711879  0.9997150985416994
  0.0001570475348913  0.5000264419167522  0.4994918265831600
  0.4998273948148295  0.9999787307151777  0.0003367333994433
  0.5001052461743214  0.0002137926122359  0.5001702342725807
  0.5001511387567987  0.4999381586512754  0.9997853954138236
  0.5000180424934300  0.5001307840102598  0.4997598650793407
  0.2361953987561591  0.3794070226992901  0.2963753723511218
  0.2363666827906172  0.3752062605863244  0.7944377445022965
  0.2366260846632713  0.8741598653212108  0.2945094191218018
  0.2367731850782704  0.8748812782992275  0.7944114802254774
  0.7362014565272261  0.3751905404619862  0.2943471282609309
  0.7366964286436968  0.3754356865810848  0.7943498096392858
  0.7363971276459864  0.8749148747081890  0.2944130587188241
  0.7364156017032073  0.8747898922104937  0.7945946839039877
  0.2638311361500385  0.1205820920076448  0.2034893913488816
  0.2636370948247588  0.1247725828079567  0.7053467999719132
  0.2633665182843714  0.6258277579965821  0.2053586607455671
  0.2632234710161399  0.6251191988300135  0.7054584331549805
  0.7638181061699996  0.1248019347874632  0.2054999000412323
  0.7633045529201610  0.1245465898244120  0.7054965321259488
  0.7636012653110171  0.6250733826083348  0.2054357895856853
  0.7635976425915914  0.6252031374337434  0.7053032362480920
  0.4875981339844984  0.3754642364565299  0.4561955611765498
  0.4881898625683192  0.3754957006605508  0.9539940211027300
  0.4879086524162801  0.8747137050521943  0.4560567892534806
  0.4876258219799467  0.8747528427946847  0.9545828589872087
  0.9871887987305499  0.3753166692824266  0.4551755632558212
  0.9845750845933949  0.3758218332494323  0.9534220669998561
  0.9867929251905849  0.8748261672366198  0.4556881142178071
  0.9861629484668555  0.8747317295565153  0.9547484930412864
  0.0124262072455252  0.1245213387974928  0.0436207028514133
  0.0118553702622393  0.1245069028663721  0.5457870600239332
  0.0121038236158526  0.6252640573926982  0.0438230734262817
  0.0123492718581772  0.6252543033138025  0.5452965658748781
  0.5128004297880864  0.1246931139719933  0.0446694514260102
  0.5154492353787106  0.1241558189971457  0.5464056001477999
  0.5131787197755386  0.6251700492758090  0.0441675262544692
  0.5138344933218519  0.6252507267206298  0.5451296545135591
  0.3975426901576924  0.4773884403183928  0.1473051910526593
  0.3972004184439157  0.4769965476549984  0.6479246596344694
  0.3971242419849688  0.9742435414540651  0.1467881779425113
  0.3970086016138836  0.9763487974078870  0.6480934190302747
  0.8974383808297830  0.4764104967022291  0.1480484570366727
  0.8972130731231616  0.4768245531587709  0.6477346707179379
  0.8965616469461324  0.9762919299638781  0.1477395722673549
  0.8967003147737884  0.9760331834444997  0.6477960219647727
  0.1005665568764940  0.2250048251364660  0.3544422322711043
  0.1018972635920363  0.2266402982023337  0.8495553057690870
  0.1026881074058323  0.7265708562599684  0.3524352247747942
  0.1028606015906490  0.7267348067174453  0.8519063068671429
  0.6035965268826260  0.2265901354374549  0.3522771835545129
  0.6032095501010133  0.2264779685345459  0.8522237010789695
  0.6029591269786820  0.7264810977719591  0.3519729749739824
  0.6029238704665048  0.7264302407273320  0.8519640198498166
  0.1024598201134665  0.0226037346274737  0.3525243900464829
  0.1027852831549296  0.0229787493343281  0.8518982492685794
  0.1028878652967080  0.5257633150757854  0.3530764186320781
  0.1030027886267249  0.5236338927413939  0.8517831885374179
  0.6025689158231984  0.0235601021488705  0.3518297238518855
  0.6027876262318443  0.0231767010577073  0.8521264805940589
  0.6034442714525170  0.5236970424121523  0.3521145052611487
  0.6033161523143917  0.5239953088117986  0.8520631703763257
  0.3994338525121819  0.2750335199431007  0.1453215463187689
  0.3980839428713665  0.2733350792751068  0.6502061811562072
  0.3972958605985752  0.7734263035551550  0.1474598228413200
  0.3971356851276440  0.7732440256429811  0.6479788810009381
  0.8964372884317129  0.2733800356960785  0.1475361532451274
  0.8967976981125574  0.2735020372081536  0.6475893145920466
  0.8970256374574390  0.7734957401807918  0.1479124158252603
  0.8970636322888552  0.7735912225984833  0.6479158698428478
  0.1468581550948684  0.4779353492795977  0.1011187695058879
  0.1473454248839730  0.4768199492588678  0.6017379934185456
  0.1455626242168577  0.9746226687876742  0.1020087563610090
  0.1469685113228394  0.9765041575776792  0.6023099876665299
  0.6474073184258344  0.4769490461947612  0.1019576442816188
  0.6474914307670403  0.4771361019131746  0.6020455433341567
  0.6469685426547471  0.9764610822837696  0.1021617204950900
  0.6471903802547132  0.9758148118743364  0.6023406960479605
  0.3558705897674628  0.2250431013812388  0.4039236800080772
  0.3526769411377870  0.2266327360536806  0.8977895796380011
  0.3532188516380828  0.7268678554608243  0.3980618408656369
  0.3527509379658085  0.7266450384393153  0.8979035654089600
  0.8523153206336360  0.2270092896932070  0.3981038412996654
  0.8523563911459036  0.2266076833232447  0.8971481555742500
  0.8527891548583710  0.7267734767415419  0.3978631854017749
  0.8526947022674989  0.7267449878021495  0.8978087106083095
  0.3531450451878868  0.0220248336463058  0.3987579840789408
  0.3526423395877458  0.0231992134241210  0.8981224520206439
  0.3544453244910954  0.5253653512363314  0.3978479179186394
  0.3530378124766003  0.5234777238810722  0.8975470994101258
  0.8526021778081656  0.0230489999517403  0.3979070457777993
  0.8525024871432691  0.0228471299172099  0.8978274537563351
  0.8530297015793806  0.5235574248071089  0.3977061209228836
  0.8528019147557089  0.5241569294942252  0.8975528197711569
  0.1442008931855341  0.2749017175019119  0.0958294719609185
  0.1473531765067904  0.2733568799831687  0.6019941698938709
  0.1467595498861982  0.7731178250706137  0.1018406100588578
  0.1472209323133953  0.7733679846840786  0.6019972063019807
  0.6477100493484400  0.2729861818963855  0.1017357195707334
  0.6476618972341015  0.2733666115923015  0.6026798170124437
  0.6471876511542831  0.7732301299135145  0.1020400578096883
  0.6472950245505160  0.7732289259505762  0.6020796714559964
  0.2500323577920298  0.2499997063028303  0.2498993082263752
 
  0.00000000E+00  0.00000000E+00  0.00000000E+00
  0.00000000E+00  0.00000000E+00  0.00000000E+00
  0.00000000E+00  0.00000000E+00  0.00000000E+00
  0.00000000E+00  0.00000000E+00  0.00000000E+00
  0.00000000E+00  0.00000000E+00  0.00000000E+00
  0.00000000E+00  0.00000000E+00  0.00000000E+00
  0.00000000E+00  0.00000000E+00  0.00000000E+00
  0.00000000E+00  0.00000000E+00  0.00000000E+00
  0.00000000E+00  0.00000000E+00  0.00000000E+00
  0.00000000E+00  0.00000000E+00  0.00000000E+00
  0.00000000E+00  0.00000000E+00  0.00000000E+00
  0.00000000E+00  0.00000000E+00  0.00000000E+00
  0.00000000E+00  0.00000000E+00  0.00000000E+00
  0.00000000E+00  0.00000000E+00  0.00000000E+00
  0.00000000E+00  0.00000000E+00  0.00000000E+00
  0.00000000E+00  0.00000000E+00  0.00000000E+00
  0.00000000E+00  0.00000000E+00  0.00000000E+00
  0.00000000E+00  0.00000000E+00  0.00000000E+00
  0.00000000E+00  0.00000000E+00  0.00000000E+00
  0.00000000E+00  0.00000000E+00  0.00000000E+00
  0.00000000E+00  0.00000000E+00  0.00000000E+00
  0.00000000E+00  0.00000000E+00  0.00000000E+00
  0.00000000E+00  0.00000000E+00  0.00000000E+00
  0.00000000E+00  0.00000000E+00  0.00000000E+00
  0.00000000E+00  0.00000000E+00  0.00000000E+00
  0.00000000E+00  0.00000000E+00  0.00000000E+00
  0.00000000E+00  0.00000000E+00  0.00000000E+00
  0.00000000E+00  0.00000000E+00  0.00000000E+00
  0.00000000E+00  0.00000000E+00  0.00000000E+00
  0.00000000E+00  0.00000000E+00  0.00000000E+00
  0.00000000E+00  0.00000000E+00  0.00000000E+00
  0.00000000E+00  0.00000000E+00  0.00000000E+00
  0.00000000E+00  0.00000000E+00  0.00000000E+00
  0.00000000E+00  0.00000000E+00  0.00000000E+00
  0.00000000E+00  0.00000000E+00  0.00000000E+00
  0.00000000E+00  0.00000000E+00  0.00000000E+00
  0.00000000E+00  0.00000000E+00  0.00000000E+00
  0.00000000E+00  0.00000000E+00  0.00000000E+00
  0.00000000E+00  0.00000000E+00  0.00000000E+00
  0.00000000E+00  0.00000000E+00  0.00000000E+00
  0.00000000E+00  0.00000000E+00  0.00000000E+00
  0.00000000E+00  0.00000000E+00  0.00000000E+00
  0.00000000E+00  0.00000000E+00  0.00000000E+00
  0.00000000E+00  0.00000000E+00  0.00000000E+00
  0.00000000E+00  0.00000000E+00  0.00000000E+00
  0.00000000E+00  0.00000000E+00  0.00000000E+00
  0.00000000E+00  0.00000000E+00  0.00000000E+00
  0.00000000E+00  0.00000000E+00  0.00000000E+00
  0.00000000E+00  0.00000000E+00  0.00000000E+00
  0.00000000E+00  0.00000000E+00  0.00000000E+00
  0.00000000E+00  0.00000000E+00  0.00000000E+00
  0.00000000E+00  0.00000000E+00  0.00000000E+00
  0.00000000E+00  0.00000000E+00  0.00000000E+00
  0.00000000E+00  0.00000000E+00  0.00000000E+00
  0.00000000E+00  0.00000000E+00  0.00000000E+00
  0.00000000E+00  0.00000000E+00  0.00000000E+00
  0.00000000E+00  0.00000000E+00  0.00000000E+00
  0.00000000E+00  0.00000000E+00  0.00000000E+00
  0.00000000E+00  0.00000000E+00  0.00000000E+00
  0.00000000E+00  0.00000000E+00  0.00000000E+00
  0.00000000E+00  0.00000000E+00  0.00000000E+00
  0.00000000E+00  0.00000000E+00  0.00000000E+00
  0.00000000E+00  0.00000000E+00  0.00000000E+00
  0.00000000E+00  0.00000000E+00  0.00000000E+00
  0.00000000E+00  0.00000000E+00  0.00000000E+00
  0.00000000E+00  0.00000000E+00  0.00000000E+00
  0.00000000E+00  0.00000000E+00  0.00000000E+00
  0.00000000E+00  0.00000000E+00  0.00000000E+00
  0.00000000E+00  0.00000000E+00  0.00000000E+00
  0.00000000E+00  0.00000000E+00  0.00000000E+00
  0.00000000E+00  0.00000000E+00  0.00000000E+00
  0.00000000E+00  0.00000000E+00  0.00000000E+00
  0.00000000E+00  0.00000000E+00  0.00000000E+00
  0.00000000E+00  0.00000000E+00  0.00000000E+00
  0.00000000E+00  0.00000000E+00  0.00000000E+00
  0.00000000E+00  0.00000000E+00  0.00000000E+00
  0.00000000E+00  0.00000000E+00  0.00000000E+00
  0.00000000E+00  0.00000000E+00  0.00000000E+00
  0.00000000E+00  0.00000000E+00  0.00000000E+00
  0.00000000E+00  0.00000000E+00  0.00000000E+00
  0.00000000E+00  0.00000000E+00  0.00000000E+00
  0.00000000E+00  0.00000000E+00  0.00000000E+00
  0.00000000E+00  0.00000000E+00  0.00000000E+00
  0.00000000E+00  0.00000000E+00  0.00000000E+00
  0.00000000E+00  0.00000000E+00  0.00000000E+00
  0.00000000E+00  0.00000000E+00  0.00000000E+00
  0.00000000E+00  0.00000000E+00  0.00000000E+00
  0.00000000E+00  0.00000000E+00  0.00000000E+00
  0.00000000E+00  0.00000000E+00  0.00000000E+00
  0.00000000E+00  0.00000000E+00  0.00000000E+00
  0.00000000E+00  0.00000000E+00  0.00000000E+00
  0.00000000E+00  0.00000000E+00  0.00000000E+00
  0.00000000E+00  0.00000000E+00  0.00000000E+00
  0.00000000E+00  0.00000000E+00  0.00000000E+00
  0.00000000E+00  0.00000000E+00  0.00000000E+00
  0.00000000E+00  0.00000000E+00  0.00000000E+00
  0.00000000E+00  0.00000000E+00  0.00000000E+00
  0.00000000E+00  0.00000000E+00  0.00000000E+00
  0.00000000E+00  0.00000000E+00  0.00000000E+00
  0.00000000E+00  0.00000000E+00  0.00000000E+00
  0.00000000E+00  0.00000000E+00  0.00000000E+00
  0.00000000E+00  0.00000000E+00  0.00000000E+00
  0.00000000E+00  0.00000000E+00  0.00000000E+00
  0.00000000E+00  0.00000000E+00  0.00000000E+00
  0.00000000E+00  0.00000000E+00  0.00000000E+00
  0.00000000E+00  0.00000000E+00  0.00000000E+00
  0.00000000E+00  0.00000000E+00  0.00000000E+00
  0.00000000E+00  0.00000000E+00  0.00000000E+00
  0.00000000E+00  0.00000000E+00  0.00000000E+00
  0.00000000E+00  0.00000000E+00  0.00000000E+00
  0.00000000E+00  0.00000000E+00  0.00000000E+00
  0.00000000E+00  0.00000000E+00  0.00000000E+00
  0.00000000E+00  0.00000000E+00  0.00000000E+00
  0.00000000E+00  0.00000000E+00  0.00000000E+00
  0.00000000E+00  0.00000000E+00  0.00000000E+00
  0.00000000E+00  0.00000000E+00  0.00000000E+00
  0.00000000E+00  0.00000000E+00  0.00000000E+00
  0.00000000E+00  0.00000000E+00  0.00000000E+00
  0.00000000E+00  0.00000000E+00  0.00000000E+00
  0.00000000E+00  0.00000000E+00  0.00000000E+00
  0.00000000E+00  0.00000000E+00  0.00000000E+00
  0.00000000E+00  0.00000000E+00  0.00000000E+00
  0.00000000E+00  0.00000000E+00  0.00000000E+00
  0.00000000E+00  0.00000000E+00  0.00000000E+00
  0.00000000E+00  0.00000000E+00  0.00000000E+00
  0.00000000E+00  0.00000000E+00  0.00000000E+00
  0.00000000E+00  0.00000000E+00  0.00000000E+00
  0.00000000E+00  0.00000000E+00  0.00000000E+00
  0.00000000E+00  0.00000000E+00  0.00000000E+00
  0.00000000E+00  0.00000000E+00  0.00000000E+00
  0.00000000E+00  0.00000000E+00  0.00000000E+00
  0.00000000E+00  0.00000000E+00  0.00000000E+00
  0.00000000E+00  0.00000000E+00  0.00000000E+00
  0.00000000E+00  0.00000000E+00  0.00000000E+00
  0.00000000E+00  0.00000000E+00  0.00000000E+00
  0.00000000E+00  0.00000000E+00  0.00000000E+00
  0.00000000E+00  0.00000000E+00  0.00000000E+00
  0.00000000E+00  0.00000000E+00  0.00000000E+00
  0.00000000E+00  0.00000000E+00  0.00000000E+00
  0.00000000E+00  0.00000000E+00  0.00000000E+00
  0.00000000E+00  0.00000000E+00  0.00000000E+00
  0.00000000E+00  0.00000000E+00  0.00000000E+00
  0.00000000E+00  0.00000000E+00  0.00000000E+00
  0.00000000E+00  0.00000000E+00  0.00000000E+00
  0.00000000E+00  0.00000000E+00  0.00000000E+00
  0.00000000E+00  0.00000000E+00  0.00000000E+00
  0.00000000E+00  0.00000000E+00  0.00000000E+00
  0.00000000E+00  0.00000000E+00  0.00000000E+00
  0.00000000E+00  0.00000000E+00  0.00000000E+00
  0.00000000E+00  0.00000000E+00  0.00000000E+00
  0.00000000E+00  0.00000000E+00  0.00000000E+00
  0.00000000E+00  0.00000000E+00  0.00000000E+00
  0.00000000E+00  0.00000000E+00  0.00000000E+00
  0.00000000E+00  0.00000000E+00  0.00000000E+00
  0.00000000E+00  0.00000000E+00  0.00000000E+00
  0.00000000E+00  0.00000000E+00  0.00000000E+00
  0.00000000E+00  0.00000000E+00  0.00000000E+00
  0.00000000E+00  0.00000000E+00  0.00000000E+00
  0.00000000E+00  0.00000000E+00  0.00000000E+00
  0.00000000E+00  0.00000000E+00  0.00000000E+00
