Num irrep kpoints: 1
0
Gamma
2 1 2
0.5 0.0 0.5
