Ca32 Ti32 O96
1.0
  10.9705905017    0.0000000000    0.0000000000
   0.0000000000   15.2696278713    0.0000000000
   0.0000000000    0.0000000000   10.7054226450
Ca Ti O
32 32 96
direct
   0.2744903665    0.3750000000    0.0057109317 Ca
   0.2744903665    0.3750000000    0.5057109317 Ca
   0.2744903665    0.8750000000    0.0057109317 Ca
   0.2744903665    0.8750000000    0.5057109317 Ca
   0.7744903665    0.3750000000    0.0057109317 Ca
   0.7744903665    0.3750000000    0.5057109317 Ca
   0.7744903665    0.8750000000    0.0057109317 Ca
   0.7744903665    0.8750000000    0.5057109317 Ca
   0.2255096335    0.1250000000    0.4942890683 Ca
   0.2255096335    0.1250000000    0.9942890683 Ca
   0.2255096335    0.6250000000    0.4942890683 Ca
   0.2255096335    0.6250000000    0.9942890683 Ca
   0.7255096335    0.1250000000    0.4942890683 Ca
   0.7255096335    0.1250000000    0.9942890683 Ca
   0.7255096335    0.6250000000    0.4942890683 Ca
   0.7255096335    0.6250000000    0.9942890683 Ca
   0.0244903665    0.3750000000    0.2442890683 Ca
   0.0244903665    0.3750000000    0.7442890683 Ca
   0.0244903665    0.8750000000    0.2442890683 Ca
   0.0244903665    0.8750000000    0.7442890683 Ca
   0.5244903665    0.3750000000    0.2442890683 Ca
   0.5244903665    0.3750000000    0.7442890683 Ca
   0.5244903665    0.8750000000    0.2442890683 Ca
   0.5244903665    0.8750000000    0.7442890683 Ca
   0.4755096335    0.1250000000    0.2557109317 Ca
   0.4755096335    0.1250000000    0.7557109317 Ca
   0.4755096335    0.6250000000    0.2557109317 Ca
   0.4755096335    0.6250000000    0.7557109317 Ca
   0.9755096335    0.1250000000    0.2557109317 Ca
   0.9755096335    0.1250000000    0.7557109317 Ca
   0.9755096335    0.6250000000    0.2557109317 Ca
   0.9755096335    0.6250000000    0.7557109317 Ca
   0.2500000000    0.2500000000    0.2500000000 Ti
   0.2500000000    0.2500000000    0.7500000000 Ti
   0.2500000000    0.7500000000    0.2500000000 Ti
   0.2500000000    0.7500000000    0.7500000000 Ti
   0.7500000000    0.2500000000    0.2500000000 Ti
   0.7500000000    0.2500000000    0.7500000000 Ti
   0.7500000000    0.7500000000    0.2500000000 Ti
   0.7500000000    0.7500000000    0.7500000000 Ti
   0.2500000000    0.0000000000    0.2500000000 Ti
   0.2500000000    0.0000000000    0.7500000000 Ti
   0.2500000000    0.5000000000    0.2500000000 Ti
   0.2500000000    0.5000000000    0.7500000000 Ti
   0.7500000000    0.0000000000    0.2500000000 Ti
   0.7500000000    0.0000000000    0.7500000000 Ti
   0.7500000000    0.5000000000    0.2500000000 Ti
   0.7500000000    0.5000000000    0.7500000000 Ti
   0.0000000000    0.2500000000    0.0000000000 Ti
   0.0000000000    0.2500000000    0.5000000000 Ti
   0.0000000000    0.7500000000    0.0000000000 Ti
   0.0000000000    0.7500000000    0.5000000000 Ti
   0.5000000000    0.2500000000    0.0000000000 Ti
   0.5000000000    0.2500000000    0.5000000000 Ti
   0.5000000000    0.7500000000    0.0000000000 Ti
   0.5000000000    0.7500000000    0.5000000000 Ti
   0.0000000000    0.0000000000    0.0000000000 Ti
   0.0000000000    0.0000000000    0.5000000000 Ti
   0.0000000000    0.5000000000    0.0000000000 Ti
   0.0000000000    0.5000000000    0.5000000000 Ti
   0.5000000000    0.0000000000    0.0000000000 Ti
   0.5000000000    0.0000000000    0.5000000000 Ti
   0.5000000000    0.5000000000    0.0000000000 Ti
   0.5000000000    0.5000000000    0.5000000000 Ti
   0.2369267727    0.3750000000    0.2942758789 O
   0.2369267727    0.3750000000    0.7942758789 O
   0.2369267727    0.8750000000    0.2942758789 O
   0.2369267727    0.8750000000    0.7942758789 O
   0.7369267727    0.3750000000    0.2942758789 O
   0.7369267727    0.3750000000    0.7942758789 O
   0.7369267727    0.8750000000    0.2942758789 O
   0.7369267727    0.8750000000    0.7942758789 O
   0.2630732273    0.1250000000    0.2057241211 O
   0.2630732273    0.1250000000    0.7057241211 O
   0.2630732273    0.6250000000    0.2057241211 O
   0.2630732273    0.6250000000    0.7057241211 O
   0.7630732273    0.1250000000    0.2057241211 O
   0.7630732273    0.1250000000    0.7057241211 O
   0.7630732273    0.6250000000    0.2057241211 O
   0.7630732273    0.6250000000    0.7057241211 O
   0.4869267727    0.3750000000    0.4557241211 O
   0.4869267727    0.3750000000    0.9557241211 O
   0.4869267727    0.8750000000    0.4557241211 O
   0.4869267727    0.8750000000    0.9557241211 O
   0.9869267727    0.3750000000    0.4557241211 O
   0.9869267727    0.3750000000    0.9557241211 O
   0.9869267727    0.8750000000    0.4557241211 O
   0.9869267727    0.8750000000    0.9557241211 O
   0.0130732273    0.1250000000    0.0442758789 O
   0.0130732273    0.1250000000    0.5442758789 O
   0.0130732273    0.6250000000    0.0442758789 O
   0.0130732273    0.6250000000    0.5442758789 O
   0.5130732273    0.1250000000    0.0442758789 O
   0.5130732273    0.1250000000    0.5442758789 O
   0.5130732273    0.6250000000    0.0442758789 O
   0.5130732273    0.6250000000    0.5442758789 O
   0.3971281298    0.4767011422    0.1479080914 O
   0.3971281298    0.4767011422    0.6479080914 O
   0.3971281298    0.9767011422    0.1479080914 O
   0.3971281298    0.9767011422    0.6479080914 O
   0.8971281298    0.4767011422    0.1479080914 O
   0.8971281298    0.4767011422    0.6479080914 O
   0.8971281298    0.9767011422    0.1479080914 O
   0.8971281298    0.9767011422    0.6479080914 O
   0.1028718702    0.2267011422    0.3520919086 O
   0.1028718702    0.2267011422    0.8520919086 O
   0.1028718702    0.7267011422    0.3520919086 O
   0.1028718702    0.7267011422    0.8520919086 O
   0.6028718702    0.2267011422    0.3520919086 O
   0.6028718702    0.2267011422    0.8520919086 O
   0.6028718702    0.7267011422    0.3520919086 O
   0.6028718702    0.7267011422    0.8520919086 O
   0.1028718702    0.0232988578    0.3520919086 O
   0.1028718702    0.0232988578    0.8520919086 O
   0.1028718702    0.5232988578    0.3520919086 O
   0.1028718702    0.5232988578    0.8520919086 O
   0.6028718702    0.0232988578    0.3520919086 O
   0.6028718702    0.0232988578    0.8520919086 O
   0.6028718702    0.5232988578    0.3520919086 O
   0.6028718702    0.5232988578    0.8520919086 O
   0.3971281298    0.2732988578    0.1479080914 O
   0.3971281298    0.2732988578    0.6479080914 O
   0.3971281298    0.7732988578    0.1479080914 O
   0.3971281298    0.7732988578    0.6479080914 O
   0.8971281298    0.2732988578    0.1479080914 O
   0.8971281298    0.2732988578    0.6479080914 O
   0.8971281298    0.7732988578    0.1479080914 O
   0.8971281298    0.7732988578    0.6479080914 O
   0.1471281298    0.4767011422    0.1020919086 O
   0.1471281298    0.4767011422    0.6020919086 O
   0.1471281298    0.9767011422    0.1020919086 O
   0.1471281298    0.9767011422    0.6020919086 O
   0.6471281298    0.4767011422    0.1020919086 O
   0.6471281298    0.4767011422    0.6020919086 O
   0.6471281298    0.9767011422    0.1020919086 O
   0.6471281298    0.9767011422    0.6020919086 O
   0.3528718702    0.2267011422    0.3979080914 O
   0.3528718702    0.2267011422    0.8979080914 O
   0.3528718702    0.7267011422    0.3979080914 O
   0.3528718702    0.7267011422    0.8979080914 O
   0.8528718702    0.2267011422    0.3979080914 O
   0.8528718702    0.2267011422    0.8979080914 O
   0.8528718702    0.7267011422    0.3979080914 O
   0.8528718702    0.7267011422    0.8979080914 O
   0.3528718702    0.0232988578    0.3979080914 O
   0.3528718702    0.0232988578    0.8979080914 O
   0.3528718702    0.5232988578    0.3979080914 O
   0.3528718702    0.5232988578    0.8979080914 O
   0.8528718702    0.0232988578    0.3979080914 O
   0.8528718702    0.0232988578    0.8979080914 O
   0.8528718702    0.5232988578    0.3979080914 O
   0.8528718702    0.5232988578    0.8979080914 O
   0.1471281298    0.2732988578    0.1020919086 O
   0.1471281298    0.2732988578    0.6020919086 O
   0.1471281298    0.7732988578    0.1020919086 O
   0.1471281298    0.7732988578    0.6020919086 O
   0.6471281298    0.2732988578    0.1020919086 O
   0.6471281298    0.2732988578    0.6020919086 O
   0.6471281298    0.7732988578    0.1020919086 O
   0.6471281298    0.7732988578    0.6020919086 O
