Num irrep kpoints: 2
0
Gamma
2 2 1
0.5 0.5 0.0
