Sr32 Ti32 O96                       
   1.00000000000000     
    11.0288193702468078    0.0000000000000000    0.0000000000000000
     0.0000000000000000   11.0288193702468078    0.0000000000000000
     0.0000000000000000    0.0000000000000000   15.7893945456516640
   Sr   Ti   O    Ti
    32    31    96     1
Direct
  0.2484980120536385  0.0003015866369199  0.1252764789550133
  0.2496761287023696  0.0004971289128653  0.6250400616840028
  0.2502263738224453  0.4996560644081292  0.1253858683175150
  0.2502448123236767  0.4999432341425602  0.6249481975408595
  0.7515291600013175  0.9998058406652114  0.1251656389327259
  0.7505228433532213  0.9997616791644339  0.6249002742078437
  0.7497936612486757  0.5004999911792117  0.1254484980139675
  0.7498492496433719  0.5002354579819154  0.6250012749931212
  0.0009216790648107  0.2494196193855572  0.3750558417292536
  0.9998936331672864  0.2496422481897859  0.8751809525081490
  0.9992948058245654  0.7508379359282119  0.3746599059059632
  0.0000746910140853  0.7504488959730466  0.8749099946129054
  0.5000072300557167  0.2504733792379141  0.3748858632873054
  0.4999419299384930  0.2500873281114523  0.8749455802821394
  0.5000897767388981  0.7496929231142958  0.3750410327763124
  0.5000051571242082  0.7500513784216725  0.8751550178066478
  0.0006608994492706  0.2493028063395617  0.1253985345482894
  0.9998044169871482  0.2496516767334756  0.6251689242866875
  0.9990282167814050  0.7507296953048368  0.1250261322833527
  0.0000045055105116  0.7504461953825464  0.6248578110146432
  0.4998446836351494  0.2504294210319095  0.1249986804370873
  0.4999060767868081  0.2500603049252673  0.6249070447513456
  0.4999296473315341  0.7496328092067331  0.1251637405844219
  0.4999769937210822  0.7500124945249700  0.6251047039238891
  0.2484116937156152  0.0003479714220066  0.3748531563789912
  0.2493935803649176  0.0003543510923568  0.8751838126989021
  0.2501487167906331  0.4996483265476044  0.3745952238157142
  0.2501079314902486  0.4998788055242493  0.8750568534945162
  0.7514702314625625  0.9998570206123036  0.3748094076267414
  0.7502283760089609  0.9996070560861905  0.8749932202982188
  0.7497231445259547  0.5004887779892033  0.3746852737444594
  0.7496803004216599  0.5001631046089378  0.8751047499639408
  0.9999724301444035  0.0000282468129343  0.7500251851021784
  0.9999593764726776  0.5000712658789230  0.2500244668647972
  0.9999782363739181  0.5000432463591220  0.7500258499238353
  0.4999859968254097  0.0000572966872508  0.2500291989962753
  0.4999520906020594  0.0000423249300865  0.7500273535605151
  0.4999813087107904  0.5000574574072856  0.2500302258499721
  0.4999622513195653  0.5000563432171289  0.7500271962168914
  0.2501051004601646  0.2502265127410639  0.5000752072086867
  0.2500097309488465  0.2501882771660006 -0.0000110577601381
  0.2499837628959070  0.7500441179679050  0.5000567617717842
  0.2498982752965435  0.7500219766629016  0.0000172236029364
  0.7500134517370087  0.2501101292602000  0.5000542167382930
  0.7499479358490083  0.2500775156033341 -0.0000051275841554
  0.7499233572202442  0.7499489887013061  0.5000549151695717
  0.7498397264556387  0.7499020189629954  0.9999544189944041
  0.9998251384013246  0.0000880209383553  0.0001838995082229
  0.0001043680354816  0.0000671266498112  0.4998745040800687
  0.9999331619025292  0.5000286041769902  0.0000545593554486
  0.0000071147119775  0.5000973276160264  0.4999941924722371
  0.4999127258617242  0.0000783509257895  0.0001571428488871
  0.5000088743202991  0.0000455188998531  0.4999032621700976
  0.4999300888367148  0.5000466531986958  0.9999258430404261
  0.4999944348062120  0.5000920327365391  0.5001302942887276
  0.2502479237517744  0.2493360836718868  0.2500286878653599
  0.2500818985203990  0.2502030222026106  0.7500425281299479
  0.2497047047498936  0.7501604327047715  0.2500040960305447
  0.2500681648743472  0.7499456776659100  0.7500290387921942
  0.7502517658174893  0.2499609390231399  0.2500420060082546
  0.7498421276051442  0.2501546041348701  0.7500304596960615
  0.7496940494468010  0.7507947498139987  0.2500226696089065
  0.7498541347990375  0.7498931804217079  0.7500101875957746
  0.3566767398349197  0.1065467243383113  0.9998217186207482
  0.3568156041225035  0.1065810114461189  0.5002364385645459
  0.3564265995904870  0.6064281139564337  0.9993629445137843
  0.3564579910055907  0.6064294127503711  0.4997319959555295
  0.8560327143234402  0.1072865230830108  0.9979607016360047
  0.8562902675056772  0.1073429889371065  0.5008146488080211
  0.8564479869343090  0.6062018758759286  0.9997015437413109
  0.8565191346493456  0.6062544802466014  0.5004171574793396
  0.1066353552693405  0.3573297517481428  0.2500462803443654
  0.1065442209424941  0.3568386267995132  0.7500528567860728
  0.1073265962676812  0.8539307865192090  0.2493455397107846
  0.1070240434174516  0.8565571607066059  0.7495306695139469
  0.6063645633539452  0.3564336708540440  0.2495554281123384
  0.6063707623808094  0.3566743487688025  0.7495671080029168
  0.6041526371513668  0.8554005612873323  0.2499660924831996
  0.6064484610545312  0.8567725997446307  0.7500435963586716
  0.1073066622118672  0.1441214393525814  0.9988021494145887
  0.1074467138711272  0.1441484667989310  0.5018728756139147
  0.1062491630692696  0.6435265480702338  0.9999576854147245
  0.1063006648843962  0.6435845327547368  0.5000816029823291
  0.6063163293779285  0.1435934107986693  0.9998109007774064
  0.6064574962840179  0.1435314745388096  0.5003836215578380
  0.6060123654046091  0.6432723519403161  0.9994589374058430
  0.6060849346818986  0.6432979670666600  0.5010111648863131
  0.3571875957191402  0.3943714697396586  0.2502857970439991
  0.3566916747353359  0.3937570307846823  0.7502999016768885
  0.3558094502768644  0.8944439655294727  0.2500458606769768
  0.3566272043770713  0.8934632073404750  0.7500780519132728
  0.8560426890633593  0.3942982488812500  0.2499895454830127
  0.8566417467216677  0.3935099001019177  0.7499634807273081
  0.8515747924271893  0.8904734493279713  0.2503573594642004
  0.8565332852841820  0.8929176274080097  0.7503035178298273
  0.1483531817488788  0.1096906385107561  0.2496822625852962
  0.1433893108135151  0.1071652605358257  0.7497471447355728
  0.1438540092716475  0.6058780016983839  0.2500625932878121
  0.1433222538878817  0.6065531156888477  0.7500901998583048
  0.6441615095215778  0.1056586772259573  0.2500094114151880
  0.6432679123941906  0.1066464615898439  0.7499823277181704
  0.6427641277320522  0.6057385340031907  0.2497882996969977
  0.6432418906114127  0.6063487796483110  0.7497627554735165
  0.3939226784614946  0.3568455789973617  0.5005831801639403
  0.3938496921575395  0.3568370043731340  0.9990356435297881
  0.3936181874318020  0.8565182815939310  0.5002401979113253
  0.3934553157750513  0.8566034820639690  0.9996891916347553
  0.8936657052786857  0.3566193177397838  0.5001147626046649
  0.8936335371445876  0.3565384704322094  0.9999621483760477
  0.8926224386447248  0.8560336198828675  0.5012210688125227
  0.8924784565713022  0.8559923987704813  0.9982561984008330
  0.3957856580933226  0.1447005105515408  0.2500806175845606
  0.3934714857961105  0.1433198819346219  0.7500141679688830
  0.3935673513182284  0.6436630167165217  0.2504891834919933
  0.3935486580897355  0.6434422360115496  0.7504951580871634
  0.8926528411930612  0.1462922609496455  0.2507381218965712
  0.8928603695365414  0.1434729243246700  0.7505324106385862
  0.8933270792973611  0.6428387720959766  0.2500141484101911
  0.8933821019674399  0.6432292416444112  0.7499953104307971
  0.1434930655471639  0.3939243792681696  0.5003165724748866
  0.1434383920069259  0.3938953874752698  0.9996589139604457
  0.1438883806525036  0.8928468199748033  0.5019889236623427
  0.1436373001724910  0.8928069788665324  0.9993619987946863
  0.6435010034280571  0.3937087741701574  0.5007036862636434
  0.6434639162145136  0.3936932939053742  0.0003445254263841
  0.6432623435263359  0.8935904412129477  0.5002426232787015
  0.6431018446964536  0.8935256503196092  0.9998240464989558
  0.0012661467533596  0.9997420408150721  0.3789984876125806
  0.0009142628179901  0.9997205222084985  0.8741570774232381
  0.9999473537776736  0.5000640751470935  0.3751794454848364
  0.9999108517004045  0.5000164650640758  0.8749337906474038
  0.5001342462615747  0.0000514453084482  0.3751676233867172
  0.5000515993680809  0.0001189174078428  0.8749389680063117
  0.5007579513422102  0.4997996298367870  0.3753729545404244
  0.5007380627197795  0.4997898512033865  0.8748061214861107
  0.2515956645848882  0.2519825669273120  0.1242372390571381
  0.2511898178435175  0.2510850114165464  0.6254046128294334
  0.2510349257431369  0.7493365376723996  0.1247269605665858
  0.2510038638317958  0.7487232129241990  0.6252412892320669
  0.7501346513942480  0.2496232376057143  0.1247411365157979
  0.7499943055917437  0.2503705472740710  0.6252280074215186
  0.7489206660361313  0.7486356409463882  0.1242232458308112
  0.7493180715803567  0.7496066128756435  0.6253770745144610
  0.9985753306013749  0.0006048622055635  0.1210682737132937
  0.9990804138063130  0.0002808701196030  0.6258992589889586
  0.9999525020674433  0.5000742266417489  0.1248707616707632
  0.0000631211701800  0.5000742891704086  0.6251134788110858
  0.4998151150221119  0.0000758222886342  0.1248846881645254
  0.4998651411481412  0.9999700996514275  0.6251189402275794
  0.4991755809616979  0.5003334621717751  0.1246811394007695
  0.4991785870688993  0.5003440409454688  0.6252515392840072
  0.2509979066823106  0.2514250890344800  0.3758369249973653
  0.2506240084632734  0.2505111413545104  0.8746801185954957
  0.2498485349638822  0.7504398133100033  0.3753074316983079
  0.2499008170008524  0.7497794604316167  0.8748505276356975
  0.7489117986248773  0.2507584043620157  0.3753491850999653
  0.7488859582960464  0.2514351215764685  0.8748088145630419
  0.7483560286144229  0.7481377731347081  0.3758185706874312
  0.7487787070731765  0.7490532316298233  0.8746558101598927
  0.9999543063981819  0.0000982309404483  0.2500316287208198
 
  0.00000000E+00  0.00000000E+00  0.00000000E+00
  0.00000000E+00  0.00000000E+00  0.00000000E+00
  0.00000000E+00  0.00000000E+00  0.00000000E+00
  0.00000000E+00  0.00000000E+00  0.00000000E+00
  0.00000000E+00  0.00000000E+00  0.00000000E+00
  0.00000000E+00  0.00000000E+00  0.00000000E+00
  0.00000000E+00  0.00000000E+00  0.00000000E+00
  0.00000000E+00  0.00000000E+00  0.00000000E+00
  0.00000000E+00  0.00000000E+00  0.00000000E+00
  0.00000000E+00  0.00000000E+00  0.00000000E+00
  0.00000000E+00  0.00000000E+00  0.00000000E+00
  0.00000000E+00  0.00000000E+00  0.00000000E+00
  0.00000000E+00  0.00000000E+00  0.00000000E+00
  0.00000000E+00  0.00000000E+00  0.00000000E+00
  0.00000000E+00  0.00000000E+00  0.00000000E+00
  0.00000000E+00  0.00000000E+00  0.00000000E+00
  0.00000000E+00  0.00000000E+00  0.00000000E+00
  0.00000000E+00  0.00000000E+00  0.00000000E+00
  0.00000000E+00  0.00000000E+00  0.00000000E+00
  0.00000000E+00  0.00000000E+00  0.00000000E+00
  0.00000000E+00  0.00000000E+00  0.00000000E+00
  0.00000000E+00  0.00000000E+00  0.00000000E+00
  0.00000000E+00  0.00000000E+00  0.00000000E+00
  0.00000000E+00  0.00000000E+00  0.00000000E+00
  0.00000000E+00  0.00000000E+00  0.00000000E+00
  0.00000000E+00  0.00000000E+00  0.00000000E+00
  0.00000000E+00  0.00000000E+00  0.00000000E+00
  0.00000000E+00  0.00000000E+00  0.00000000E+00
  0.00000000E+00  0.00000000E+00  0.00000000E+00
  0.00000000E+00  0.00000000E+00  0.00000000E+00
  0.00000000E+00  0.00000000E+00  0.00000000E+00
  0.00000000E+00  0.00000000E+00  0.00000000E+00
  0.00000000E+00  0.00000000E+00  0.00000000E+00
  0.00000000E+00  0.00000000E+00  0.00000000E+00
  0.00000000E+00  0.00000000E+00  0.00000000E+00
  0.00000000E+00  0.00000000E+00  0.00000000E+00
  0.00000000E+00  0.00000000E+00  0.00000000E+00
  0.00000000E+00  0.00000000E+00  0.00000000E+00
  0.00000000E+00  0.00000000E+00  0.00000000E+00
  0.00000000E+00  0.00000000E+00  0.00000000E+00
  0.00000000E+00  0.00000000E+00  0.00000000E+00
  0.00000000E+00  0.00000000E+00  0.00000000E+00
  0.00000000E+00  0.00000000E+00  0.00000000E+00
  0.00000000E+00  0.00000000E+00  0.00000000E+00
  0.00000000E+00  0.00000000E+00  0.00000000E+00
  0.00000000E+00  0.00000000E+00  0.00000000E+00
  0.00000000E+00  0.00000000E+00  0.00000000E+00
  0.00000000E+00  0.00000000E+00  0.00000000E+00
  0.00000000E+00  0.00000000E+00  0.00000000E+00
  0.00000000E+00  0.00000000E+00  0.00000000E+00
  0.00000000E+00  0.00000000E+00  0.00000000E+00
  0.00000000E+00  0.00000000E+00  0.00000000E+00
  0.00000000E+00  0.00000000E+00  0.00000000E+00
  0.00000000E+00  0.00000000E+00  0.00000000E+00
  0.00000000E+00  0.00000000E+00  0.00000000E+00
  0.00000000E+00  0.00000000E+00  0.00000000E+00
  0.00000000E+00  0.00000000E+00  0.00000000E+00
  0.00000000E+00  0.00000000E+00  0.00000000E+00
  0.00000000E+00  0.00000000E+00  0.00000000E+00
  0.00000000E+00  0.00000000E+00  0.00000000E+00
  0.00000000E+00  0.00000000E+00  0.00000000E+00
  0.00000000E+00  0.00000000E+00  0.00000000E+00
  0.00000000E+00  0.00000000E+00  0.00000000E+00
  0.00000000E+00  0.00000000E+00  0.00000000E+00
  0.00000000E+00  0.00000000E+00  0.00000000E+00
  0.00000000E+00  0.00000000E+00  0.00000000E+00
  0.00000000E+00  0.00000000E+00  0.00000000E+00
  0.00000000E+00  0.00000000E+00  0.00000000E+00
  0.00000000E+00  0.00000000E+00  0.00000000E+00
  0.00000000E+00  0.00000000E+00  0.00000000E+00
  0.00000000E+00  0.00000000E+00  0.00000000E+00
  0.00000000E+00  0.00000000E+00  0.00000000E+00
  0.00000000E+00  0.00000000E+00  0.00000000E+00
  0.00000000E+00  0.00000000E+00  0.00000000E+00
  0.00000000E+00  0.00000000E+00  0.00000000E+00
  0.00000000E+00  0.00000000E+00  0.00000000E+00
  0.00000000E+00  0.00000000E+00  0.00000000E+00
  0.00000000E+00  0.00000000E+00  0.00000000E+00
  0.00000000E+00  0.00000000E+00  0.00000000E+00
  0.00000000E+00  0.00000000E+00  0.00000000E+00
  0.00000000E+00  0.00000000E+00  0.00000000E+00
  0.00000000E+00  0.00000000E+00  0.00000000E+00
  0.00000000E+00  0.00000000E+00  0.00000000E+00
  0.00000000E+00  0.00000000E+00  0.00000000E+00
  0.00000000E+00  0.00000000E+00  0.00000000E+00
  0.00000000E+00  0.00000000E+00  0.00000000E+00
  0.00000000E+00  0.00000000E+00  0.00000000E+00
  0.00000000E+00  0.00000000E+00  0.00000000E+00
  0.00000000E+00  0.00000000E+00  0.00000000E+00
  0.00000000E+00  0.00000000E+00  0.00000000E+00
  0.00000000E+00  0.00000000E+00  0.00000000E+00
  0.00000000E+00  0.00000000E+00  0.00000000E+00
  0.00000000E+00  0.00000000E+00  0.00000000E+00
  0.00000000E+00  0.00000000E+00  0.00000000E+00
  0.00000000E+00  0.00000000E+00  0.00000000E+00
  0.00000000E+00  0.00000000E+00  0.00000000E+00
  0.00000000E+00  0.00000000E+00  0.00000000E+00
  0.00000000E+00  0.00000000E+00  0.00000000E+00
  0.00000000E+00  0.00000000E+00  0.00000000E+00
  0.00000000E+00  0.00000000E+00  0.00000000E+00
  0.00000000E+00  0.00000000E+00  0.00000000E+00
  0.00000000E+00  0.00000000E+00  0.00000000E+00
  0.00000000E+00  0.00000000E+00  0.00000000E+00
  0.00000000E+00  0.00000000E+00  0.00000000E+00
  0.00000000E+00  0.00000000E+00  0.00000000E+00
  0.00000000E+00  0.00000000E+00  0.00000000E+00
  0.00000000E+00  0.00000000E+00  0.00000000E+00
  0.00000000E+00  0.00000000E+00  0.00000000E+00
  0.00000000E+00  0.00000000E+00  0.00000000E+00
  0.00000000E+00  0.00000000E+00  0.00000000E+00
  0.00000000E+00  0.00000000E+00  0.00000000E+00
  0.00000000E+00  0.00000000E+00  0.00000000E+00
  0.00000000E+00  0.00000000E+00  0.00000000E+00
  0.00000000E+00  0.00000000E+00  0.00000000E+00
  0.00000000E+00  0.00000000E+00  0.00000000E+00
  0.00000000E+00  0.00000000E+00  0.00000000E+00
  0.00000000E+00  0.00000000E+00  0.00000000E+00
  0.00000000E+00  0.00000000E+00  0.00000000E+00
  0.00000000E+00  0.00000000E+00  0.00000000E+00
  0.00000000E+00  0.00000000E+00  0.00000000E+00
  0.00000000E+00  0.00000000E+00  0.00000000E+00
  0.00000000E+00  0.00000000E+00  0.00000000E+00
  0.00000000E+00  0.00000000E+00  0.00000000E+00
  0.00000000E+00  0.00000000E+00  0.00000000E+00
  0.00000000E+00  0.00000000E+00  0.00000000E+00
  0.00000000E+00  0.00000000E+00  0.00000000E+00
  0.00000000E+00  0.00000000E+00  0.00000000E+00
  0.00000000E+00  0.00000000E+00  0.00000000E+00
  0.00000000E+00  0.00000000E+00  0.00000000E+00
  0.00000000E+00  0.00000000E+00  0.00000000E+00
  0.00000000E+00  0.00000000E+00  0.00000000E+00
  0.00000000E+00  0.00000000E+00  0.00000000E+00
  0.00000000E+00  0.00000000E+00  0.00000000E+00
  0.00000000E+00  0.00000000E+00  0.00000000E+00
  0.00000000E+00  0.00000000E+00  0.00000000E+00
  0.00000000E+00  0.00000000E+00  0.00000000E+00
  0.00000000E+00  0.00000000E+00  0.00000000E+00
  0.00000000E+00  0.00000000E+00  0.00000000E+00
  0.00000000E+00  0.00000000E+00  0.00000000E+00
  0.00000000E+00  0.00000000E+00  0.00000000E+00
  0.00000000E+00  0.00000000E+00  0.00000000E+00
  0.00000000E+00  0.00000000E+00  0.00000000E+00
  0.00000000E+00  0.00000000E+00  0.00000000E+00
  0.00000000E+00  0.00000000E+00  0.00000000E+00
  0.00000000E+00  0.00000000E+00  0.00000000E+00
  0.00000000E+00  0.00000000E+00  0.00000000E+00
  0.00000000E+00  0.00000000E+00  0.00000000E+00
  0.00000000E+00  0.00000000E+00  0.00000000E+00
  0.00000000E+00  0.00000000E+00  0.00000000E+00
  0.00000000E+00  0.00000000E+00  0.00000000E+00
  0.00000000E+00  0.00000000E+00  0.00000000E+00
  0.00000000E+00  0.00000000E+00  0.00000000E+00
  0.00000000E+00  0.00000000E+00  0.00000000E+00
  0.00000000E+00  0.00000000E+00  0.00000000E+00
  0.00000000E+00  0.00000000E+00  0.00000000E+00
  0.00000000E+00  0.00000000E+00  0.00000000E+00
  0.00000000E+00  0.00000000E+00  0.00000000E+00
  0.00000000E+00  0.00000000E+00  0.00000000E+00
  0.00000000E+00  0.00000000E+00  0.00000000E+00
  0.00000000E+00  0.00000000E+00  0.00000000E+00
