Ca32 Ti32 O96                       
   1.00000000000000     
    10.9705905016578065    0.0000000000000000    0.0000000000000000
     0.0000000000000000   15.2696278713035447    0.0000000000000000
     0.0000000000000000    0.0000000000000000   10.7054226450466157
   Ca   Ti   O    O
    32    32    95     1
Direct
  0.2732272949097759  0.3750700582112674  0.0045786233870461
  0.2773230996405902  0.3750308039697277  0.5152891757396794
  0.2744461895746272  0.8750704401146941  0.0046300369984457
  0.2745709208893541  0.8750238208365850  0.5072795399451987
  0.7738367480014164  0.3750566108275897  0.0053127136543740
  0.7738857620120823  0.3750724283540822  0.5058080204938653
  0.7738665498570716  0.8750522414893911  0.0053609556007869
  0.7742859416674438  0.8750445292532395  0.5057492263653199
  0.2267818215143125  0.1240238972302693  0.4970392176075272
  0.2249297850680189  0.1234173003782596  0.9906401151743837
  0.2266950873670708  0.6261039151290020  0.4970585467291691
  0.2248385837811359  0.6266087699826329  0.9905340322392387
  0.7260139460236317  0.1247542394784942  0.4948120778974049
  0.7254170833180269  0.1248514533335054  0.9943594573801782
  0.7259036122141110  0.6253372258704247  0.4948165304694623
  0.7253723303872323  0.6253072104341624  0.9943649449703582
  0.0183703758559433  0.3750658477921657  0.2410907293214996
  0.0238825435493421  0.3750347002418689  0.7458332885772433
  0.0231409537560848  0.8750415270800652  0.2439337749712651
  0.0235446541964221  0.8750458472249864  0.7444439053970413
  0.5282030280640003  0.3750440405977766  0.2439837059973083
  0.5243654928596138  0.3750010252186806  0.7447962175655682
  0.5252143948464003  0.8750699325790997  0.2445708855129721
  0.5244363321687520  0.8750446786462616  0.7446342783314035
  0.4781329161928113  0.1232726840874646  0.2566927801012264
  0.4764500967422618  0.1247745648310290  0.7555472858016569
  0.4780504982597305  0.6268018627234765  0.2566656199633459
  0.4763931043145813  0.6253284378807591  0.7555826997402449
  0.9745110356146242  0.1248690488790775  0.2562317557650258
  0.9756379873124753  0.1246132394059740  0.7549164463004765
  0.9744536146689609  0.6252679097619747  0.2561017603728770
  0.9755593148218901  0.6254865879136854  0.7550407919610092
  0.2501160784647903  0.2429121102862445  0.2472891125279686
  0.2499747850183917  0.2496752103115985  0.7507992962282799
  0.2500694391553780  0.7517614069692424  0.2503122590538143
  0.2500593291174836  0.7503977283959427  0.7500386580006111
  0.7500728884490995  0.2496838476792165  0.2501562668390635
  0.7496804488570281  0.2500414494330639  0.7500138639653025
  0.7502140452723390  0.7502376032485839  0.2500673130129246
  0.7500510255589421  0.7499914499808348  0.7501819524018013
  0.2501450669694802 -0.0016871448618658  0.2503073816284582
  0.2501506937459745 -0.0003074990987771  0.7500499778351021
  0.2499891740452232  0.5072928415001251  0.2472791022894625
  0.2498745856573525  0.5003617861266505  0.7507680228629489
  0.7502842862002675 -0.0000998632331737  0.2499930108413961
  0.7500760839629235  0.0000699763879050  0.7502116391501321
  0.7499968573669182  0.5004218721278403  0.2502563204320865
  0.7495910782142853  0.5000479494575348  0.7500545167975529
 -0.0001869921339232  0.2494991403990943 -0.0001184355601265
  0.9998022805384905  0.2505820134775401  0.5008309068791422
 -0.0001079881709402  0.7502669979753301  0.0002221351116101
  0.0001993693131984  0.7500128188259475  0.4995915361391302
  0.4996992114860864  0.2502134358768212  0.0003504954254213
  0.4998630190996800  0.2496813012983219  0.4992932153822376
  0.4999774315312649  0.7501967909498362  0.0003128011804716
  0.5001244324536143  0.7503156831050054  0.5002491276874376
 -0.0000750019645609 -0.0001482290544980  0.0002238023488316
  0.0002662784042379  0.0000568813237460  0.4995165224446014
 -0.0001829158712266  0.5005173428987416 -0.0001513421138161
  0.9997612740979789  0.4995815062410681  0.5008904560170723
  0.5000536060768842 -0.0000912865237794  0.0002761827733702
  0.5001625118124572 -0.0002120873774845  0.5001994047423842
  0.4996325664174437  0.4998349982318665  0.0003846780092251
  0.4997760812996234  0.5003985178185301  0.4993003573096163
  0.2368259369205731  0.3750224906934090  0.7928716886442557
  0.2356000388906254  0.8750777940050602  0.2964324435966134
  0.2362372566464224  0.8750413680904765  0.7934382104773746
  0.7392159171822911  0.3750632511512757  0.2940218873755864
  0.7366256375856511  0.3750199437400873  0.7939872431441836
  0.7375674850240097  0.8750426234673159  0.2940360413302933
  0.7371337530485831  0.8750623534764057  0.7939004295781572
  0.2647152006792916  0.1233538655680499  0.2015791476526509
  0.2637920514605032  0.1250166161587474  0.7075004861827683
  0.2646295751500289  0.6267511191357661  0.2014889166556597
  0.2637260860540196  0.6250264485610476  0.7075431783308251
  0.7626426732206931  0.1250373772182294  0.2059315060355906
  0.7630675024298261  0.1253027578926399  0.7061094796269292
  0.7625312237714273  0.6250477348338997  0.2059623873125201
  0.7630310816088964  0.6247908658802198  0.7061026615376238
  0.4855026109620479  0.3750343842226116  0.4544894990865098
  0.4866529421889173  0.3750414883234612  0.9563072731151696
  0.4869990354663605  0.8750402544469542  0.4557408375617931
  0.4878758764584292  0.8750434655283231  0.9557579497871737
  0.9875903867806389  0.3750661058778413  0.4544588905203106
  0.9881140327247701  0.3750245198844304  0.9572610127262586
  0.9878373239168231  0.8750448558112233  0.4556568722825149
  0.9869153466913378  0.8750610945469305  0.9557315795282290
  0.0134175724136116  0.1250071698765210  0.0451237933092527
  0.0135814543301428  0.1256351746637274  0.5427533057114843
  0.0133905554699088  0.6250448688970941  0.0450079912146313
  0.0135580098123535  0.6244355717715544  0.5428451046808221
  0.5116229515369661  0.1255071665026989  0.0449815619506302
  0.5125814678008767  0.1250189236329236  0.5440731453871591
  0.5115368003501446  0.6245679161000232  0.0449650926318961
  0.5124671641241252  0.6250544570386013  0.5441125082092353
  0.3946509608419232  0.4741292585008484  0.1501595085198218
  0.3963493392982781  0.4764591543031265  0.6472103092437774
  0.3969655218426776  0.9758889177511677  0.1480563904956177
  0.3968396299236622  0.9767123841736801  0.6475649597626304
  0.8961791517154567  0.4772122220741747  0.1470816599814030
  0.8968809745385037  0.4763715943858867  0.6474581800824858
  0.8969702898987685  0.9769717025585195  0.1477317973217782
  0.8972599342301093  0.9773554883207655  0.6474500979413272
  0.1044612217772717  0.2302862039696899  0.3506429917606507
  0.1029918125247630  0.2265481966498923  0.8525936101448855
  0.1037044446157090  0.7257103864450859  0.3518426035563313
  0.1033221797057974  0.7266696361973244  0.8526648401321780
  0.6033546859548975  0.2269851510662365  0.3523963293561782
  0.6026030012575850  0.2271131513449586  0.8530492268790325
  0.6036316887524267  0.7272477638653655  0.3529151063962744
  0.6032849967754572  0.7264845981950405  0.8528860273773127
  0.1037758074652751  0.0243647841985356  0.3518791073148207
  0.1033647247519758  0.0234364479437759  0.8526340465698942
  0.1044350790066161  0.5198734778525858  0.3506781041205549
  0.1028933893146993  0.5234306620946694  0.8525619562999465
  0.6037109781674738  0.0228398828412941  0.3528999863652561
  0.6033838749109017  0.0236123901151653  0.8528632530554940
  0.6032710597336851  0.5231092951494802  0.3523787777511105
  0.6025303825911255  0.5229889748945514  0.8530749116151392
  0.3947713535290900  0.2759518684939740  0.1501639155737955
  0.3964229125675400  0.2735103226354654  0.6472122083237435
  0.3969070415839865  0.7742284652006372  0.1480626767296500
  0.3968016277272748  0.7733351163434609  0.6475723702585400
  0.8962155933622816  0.2728534149628553  0.1470603519294506
  0.8969187503791290  0.2737002888372024  0.6474028127522864
  0.8969222045373931  0.7730500413202986  0.1477870635368184
  0.8972262663671293  0.7727375871901916  0.6474706234978870
  0.1466550630943706  0.4761656176813471  0.1039843493490940
  0.1469531057786872  0.4771770400681237  0.6026183227901567
  0.1469483707226735  0.9760395595893404  0.1026517851165284
  0.1472554057107093  0.9775635704897027  0.6020411567173453
  0.6458362972812224  0.4764962500687754  0.1031127374711633
  0.6463751842594568  0.4769827372396379  0.6022599289381494
  0.6469279914515299  0.9771891707833524  0.1024752970289214
  0.6470268329583909  0.9770172675555864  0.6025579181386355
  0.3531520627331098  0.2245418807237458  0.3961591709341233
  0.3524584035389415  0.2273763259639085  0.8988680618057399
  0.3532473644123446  0.7267027390018731  0.3970585316661712
  0.3533014124485279  0.7276443935179070  0.8976461865287796
  0.8538551341792187  0.2266347262047851  0.3974695333225720
  0.8530639569154076  0.2270431420585565  0.8976226975775964
  0.8534953602288639  0.7267396635178236  0.3975128487124606
  0.8532338801845577  0.7268651553209040  0.8977640697385200
  0.3533361180760616  0.0234139446497318  0.3970425913954461
  0.3533531822612491  0.0224096920849758  0.8976142431671768
  0.3530577481835433  0.5255551899759623  0.3961597150217055
  0.3523845705442363  0.5226275576599378  0.8988813199950091
  0.8536266464504229  0.0233413968864061  0.3974678755011373
  0.8532722496953461  0.0232853305087964  0.8977244000549092
  0.8537946689429083  0.5234384994646242  0.3974943631138157
  0.8530296571295162  0.5230313542263761  0.8976587412235060
  0.1466795167122831  0.2739098814772136  0.1039587691322063
  0.1470137781154209  0.2729031910565300  0.6025862932867284
  0.1468482798027145  0.7741511604529462  0.1027224118126587
  0.1472316109908159  0.7724881198603623  0.6020500720482160
  0.6458664847671950  0.2735933592990630  0.1031023302270904
  0.6464401945130474  0.2731035492485047  0.6023074881257973
  0.6468500835774866  0.7729041898276018  0.1025156915496191
  0.6469537173569743  0.7730559908251351  0.6025454901393300
  0.2447465369963870  0.3751083367261739  0.2974361160895884
 
  0.00000000E+00  0.00000000E+00  0.00000000E+00
  0.00000000E+00  0.00000000E+00  0.00000000E+00
  0.00000000E+00  0.00000000E+00  0.00000000E+00
  0.00000000E+00  0.00000000E+00  0.00000000E+00
  0.00000000E+00  0.00000000E+00  0.00000000E+00
  0.00000000E+00  0.00000000E+00  0.00000000E+00
  0.00000000E+00  0.00000000E+00  0.00000000E+00
  0.00000000E+00  0.00000000E+00  0.00000000E+00
  0.00000000E+00  0.00000000E+00  0.00000000E+00
  0.00000000E+00  0.00000000E+00  0.00000000E+00
  0.00000000E+00  0.00000000E+00  0.00000000E+00
  0.00000000E+00  0.00000000E+00  0.00000000E+00
  0.00000000E+00  0.00000000E+00  0.00000000E+00
  0.00000000E+00  0.00000000E+00  0.00000000E+00
  0.00000000E+00  0.00000000E+00  0.00000000E+00
  0.00000000E+00  0.00000000E+00  0.00000000E+00
  0.00000000E+00  0.00000000E+00  0.00000000E+00
  0.00000000E+00  0.00000000E+00  0.00000000E+00
  0.00000000E+00  0.00000000E+00  0.00000000E+00
  0.00000000E+00  0.00000000E+00  0.00000000E+00
  0.00000000E+00  0.00000000E+00  0.00000000E+00
  0.00000000E+00  0.00000000E+00  0.00000000E+00
  0.00000000E+00  0.00000000E+00  0.00000000E+00
  0.00000000E+00  0.00000000E+00  0.00000000E+00
  0.00000000E+00  0.00000000E+00  0.00000000E+00
  0.00000000E+00  0.00000000E+00  0.00000000E+00
  0.00000000E+00  0.00000000E+00  0.00000000E+00
  0.00000000E+00  0.00000000E+00  0.00000000E+00
  0.00000000E+00  0.00000000E+00  0.00000000E+00
  0.00000000E+00  0.00000000E+00  0.00000000E+00
  0.00000000E+00  0.00000000E+00  0.00000000E+00
  0.00000000E+00  0.00000000E+00  0.00000000E+00
  0.00000000E+00  0.00000000E+00  0.00000000E+00
  0.00000000E+00  0.00000000E+00  0.00000000E+00
  0.00000000E+00  0.00000000E+00  0.00000000E+00
  0.00000000E+00  0.00000000E+00  0.00000000E+00
  0.00000000E+00  0.00000000E+00  0.00000000E+00
  0.00000000E+00  0.00000000E+00  0.00000000E+00
  0.00000000E+00  0.00000000E+00  0.00000000E+00
  0.00000000E+00  0.00000000E+00  0.00000000E+00
  0.00000000E+00  0.00000000E+00  0.00000000E+00
  0.00000000E+00  0.00000000E+00  0.00000000E+00
  0.00000000E+00  0.00000000E+00  0.00000000E+00
  0.00000000E+00  0.00000000E+00  0.00000000E+00
  0.00000000E+00  0.00000000E+00  0.00000000E+00
  0.00000000E+00  0.00000000E+00  0.00000000E+00
  0.00000000E+00  0.00000000E+00  0.00000000E+00
  0.00000000E+00  0.00000000E+00  0.00000000E+00
  0.00000000E+00  0.00000000E+00  0.00000000E+00
  0.00000000E+00  0.00000000E+00  0.00000000E+00
  0.00000000E+00  0.00000000E+00  0.00000000E+00
  0.00000000E+00  0.00000000E+00  0.00000000E+00
  0.00000000E+00  0.00000000E+00  0.00000000E+00
  0.00000000E+00  0.00000000E+00  0.00000000E+00
  0.00000000E+00  0.00000000E+00  0.00000000E+00
  0.00000000E+00  0.00000000E+00  0.00000000E+00
  0.00000000E+00  0.00000000E+00  0.00000000E+00
  0.00000000E+00  0.00000000E+00  0.00000000E+00
  0.00000000E+00  0.00000000E+00  0.00000000E+00
  0.00000000E+00  0.00000000E+00  0.00000000E+00
  0.00000000E+00  0.00000000E+00  0.00000000E+00
  0.00000000E+00  0.00000000E+00  0.00000000E+00
  0.00000000E+00  0.00000000E+00  0.00000000E+00
  0.00000000E+00  0.00000000E+00  0.00000000E+00
  0.00000000E+00  0.00000000E+00  0.00000000E+00
  0.00000000E+00  0.00000000E+00  0.00000000E+00
  0.00000000E+00  0.00000000E+00  0.00000000E+00
  0.00000000E+00  0.00000000E+00  0.00000000E+00
  0.00000000E+00  0.00000000E+00  0.00000000E+00
  0.00000000E+00  0.00000000E+00  0.00000000E+00
  0.00000000E+00  0.00000000E+00  0.00000000E+00
  0.00000000E+00  0.00000000E+00  0.00000000E+00
  0.00000000E+00  0.00000000E+00  0.00000000E+00
  0.00000000E+00  0.00000000E+00  0.00000000E+00
  0.00000000E+00  0.00000000E+00  0.00000000E+00
  0.00000000E+00  0.00000000E+00  0.00000000E+00
  0.00000000E+00  0.00000000E+00  0.00000000E+00
  0.00000000E+00  0.00000000E+00  0.00000000E+00
  0.00000000E+00  0.00000000E+00  0.00000000E+00
  0.00000000E+00  0.00000000E+00  0.00000000E+00
  0.00000000E+00  0.00000000E+00  0.00000000E+00
  0.00000000E+00  0.00000000E+00  0.00000000E+00
  0.00000000E+00  0.00000000E+00  0.00000000E+00
  0.00000000E+00  0.00000000E+00  0.00000000E+00
  0.00000000E+00  0.00000000E+00  0.00000000E+00
  0.00000000E+00  0.00000000E+00  0.00000000E+00
  0.00000000E+00  0.00000000E+00  0.00000000E+00
  0.00000000E+00  0.00000000E+00  0.00000000E+00
  0.00000000E+00  0.00000000E+00  0.00000000E+00
  0.00000000E+00  0.00000000E+00  0.00000000E+00
  0.00000000E+00  0.00000000E+00  0.00000000E+00
  0.00000000E+00  0.00000000E+00  0.00000000E+00
  0.00000000E+00  0.00000000E+00  0.00000000E+00
  0.00000000E+00  0.00000000E+00  0.00000000E+00
  0.00000000E+00  0.00000000E+00  0.00000000E+00
  0.00000000E+00  0.00000000E+00  0.00000000E+00
  0.00000000E+00  0.00000000E+00  0.00000000E+00
  0.00000000E+00  0.00000000E+00  0.00000000E+00
  0.00000000E+00  0.00000000E+00  0.00000000E+00
  0.00000000E+00  0.00000000E+00  0.00000000E+00
  0.00000000E+00  0.00000000E+00  0.00000000E+00
  0.00000000E+00  0.00000000E+00  0.00000000E+00
  0.00000000E+00  0.00000000E+00  0.00000000E+00
  0.00000000E+00  0.00000000E+00  0.00000000E+00
  0.00000000E+00  0.00000000E+00  0.00000000E+00
  0.00000000E+00  0.00000000E+00  0.00000000E+00
  0.00000000E+00  0.00000000E+00  0.00000000E+00
  0.00000000E+00  0.00000000E+00  0.00000000E+00
  0.00000000E+00  0.00000000E+00  0.00000000E+00
  0.00000000E+00  0.00000000E+00  0.00000000E+00
  0.00000000E+00  0.00000000E+00  0.00000000E+00
  0.00000000E+00  0.00000000E+00  0.00000000E+00
  0.00000000E+00  0.00000000E+00  0.00000000E+00
  0.00000000E+00  0.00000000E+00  0.00000000E+00
  0.00000000E+00  0.00000000E+00  0.00000000E+00
  0.00000000E+00  0.00000000E+00  0.00000000E+00
  0.00000000E+00  0.00000000E+00  0.00000000E+00
  0.00000000E+00  0.00000000E+00  0.00000000E+00
  0.00000000E+00  0.00000000E+00  0.00000000E+00
  0.00000000E+00  0.00000000E+00  0.00000000E+00
  0.00000000E+00  0.00000000E+00  0.00000000E+00
  0.00000000E+00  0.00000000E+00  0.00000000E+00
  0.00000000E+00  0.00000000E+00  0.00000000E+00
  0.00000000E+00  0.00000000E+00  0.00000000E+00
  0.00000000E+00  0.00000000E+00  0.00000000E+00
  0.00000000E+00  0.00000000E+00  0.00000000E+00
  0.00000000E+00  0.00000000E+00  0.00000000E+00
  0.00000000E+00  0.00000000E+00  0.00000000E+00
  0.00000000E+00  0.00000000E+00  0.00000000E+00
  0.00000000E+00  0.00000000E+00  0.00000000E+00
  0.00000000E+00  0.00000000E+00  0.00000000E+00
  0.00000000E+00  0.00000000E+00  0.00000000E+00
  0.00000000E+00  0.00000000E+00  0.00000000E+00
  0.00000000E+00  0.00000000E+00  0.00000000E+00
  0.00000000E+00  0.00000000E+00  0.00000000E+00
  0.00000000E+00  0.00000000E+00  0.00000000E+00
  0.00000000E+00  0.00000000E+00  0.00000000E+00
  0.00000000E+00  0.00000000E+00  0.00000000E+00
  0.00000000E+00  0.00000000E+00  0.00000000E+00
  0.00000000E+00  0.00000000E+00  0.00000000E+00
  0.00000000E+00  0.00000000E+00  0.00000000E+00
  0.00000000E+00  0.00000000E+00  0.00000000E+00
  0.00000000E+00  0.00000000E+00  0.00000000E+00
  0.00000000E+00  0.00000000E+00  0.00000000E+00
  0.00000000E+00  0.00000000E+00  0.00000000E+00
  0.00000000E+00  0.00000000E+00  0.00000000E+00
  0.00000000E+00  0.00000000E+00  0.00000000E+00
  0.00000000E+00  0.00000000E+00  0.00000000E+00
  0.00000000E+00  0.00000000E+00  0.00000000E+00
  0.00000000E+00  0.00000000E+00  0.00000000E+00
  0.00000000E+00  0.00000000E+00  0.00000000E+00
  0.00000000E+00  0.00000000E+00  0.00000000E+00
  0.00000000E+00  0.00000000E+00  0.00000000E+00
  0.00000000E+00  0.00000000E+00  0.00000000E+00
  0.00000000E+00  0.00000000E+00  0.00000000E+00
  0.00000000E+00  0.00000000E+00  0.00000000E+00
  0.00000000E+00  0.00000000E+00  0.00000000E+00
  0.00000000E+00  0.00000000E+00  0.00000000E+00
  0.00000000E+00  0.00000000E+00  0.00000000E+00
  0.00000000E+00  0.00000000E+00  0.00000000E+00
