Ti36 O72                            
   1.00000000000000     
  11.6329049503    0.0000000000    0.0000000000
   0.0000000000   11.6329049503    0.0000000000
   0.0000000000    0.0000000000    9.5695023414
   Ti   O    Ti
    35    72     1
Direct
  0.9997963482040859  0.3334579657248327  0.0005701436221344
  0.9996696641350979  0.6667192186301776  0.0005305705051910
  0.3330514121460553  0.0001787199462981  0.9993416164552897
  0.3332184013339301  0.3335902649219307  0.9999111341915352
  0.3330645732518107  0.6667668696285958  0.9998625532820284
  0.6662928343761507  0.9999919082056721  0.9994378318995061
  0.6663883135924991  0.3334108285953974  0.0000464330319829
  0.6662113263719718  0.6665896993042537  0.0000156371873601
  0.1666207783194551  0.1669779799214410  0.4999105260712753
  0.1666114067300484  0.5002068569431941  0.5004390210797425
  0.1664964512927369  0.8334464438559763  0.4999101075562962
  0.4998198287674072  0.1668385591956039  0.4994742438484820
  0.4998466306381388  0.5000905388577550  0.4999332236310963
  0.4996905611093254  0.8333854191951318  0.4994045937608362
  0.8330792568049645  0.1668453546121356  0.5000806357159675
  0.8331308017326720  0.5000908017755776  0.5005416220541434
  0.8329723022613891  0.8333174474839140  0.5000073429439240
  0.9998043829348120  0.1667023906430316  0.2502422364325554
  0.9998300575361370  0.5001044755455908  0.2506334455121788
  0.9997154992873050  0.8334892102137559  0.2501616717730641
  0.3331202697566482  0.1667834959316039  0.2495125667311200
  0.3331427616746012  0.5001852275841330  0.2500562724789575
  0.3329916489705766  0.8335687006021431  0.2494856045798102
  0.6665763608804554  0.1665968621209402  0.2496293388610198
  0.6665987459669509  0.5000045422611734  0.2501660150915654
  0.6664466956401256  0.8333998746840265  0.2495962704867978
  0.1663045037415856  0.0002438424765288  0.7496606915746469
  0.1663857649540503  0.3334856395555690  0.7503386905580527
  0.1662378574235461  0.6669445599933397  0.7503055006591950
  0.4997036269170536  0.0000869987952896  0.7493250137537260
  0.4998218053790353  0.3333923369173988  0.7498181927667389
  0.4996511448993317  0.6668369177552904  0.7497472110158725
  0.8330986175958017  0.0000825600839391  0.7498322675579345
  0.8331764815180449  0.3333765650869367  0.7504297996564446
  0.8330236208616952  0.6668167598477766  0.7504399301308382
  0.9998441543496028  0.1668692463976882  0.4595126086356203
  0.9998566471355801  0.5001752067396836  0.4598981976416994
  0.9997294165579191  0.8333723821613432  0.4594299512324582
  0.3332130046222446  0.1669218925798575  0.4588197210642733
  0.3332103945318039  0.5001516927731160  0.4593574203017567
  0.3330900527819907  0.8334872820350654  0.4588198893759383
  0.6664674590123951  0.1668047589751396  0.4589479347507393
  0.6665089422540120  0.5000274691382955  0.4594598480264835
  0.6663697395911470  0.8333255792130885  0.4589071004981449
  0.1663909589974395  0.0003099480137365  0.9589763883045919
  0.1664934699064915  0.3334971233503907  0.9596355046503291
  0.1663467753886820  0.6666638040987607  0.9595793590656641
  0.4996813586527864  0.0000318829345076  0.9586246822566125
  0.4998028488427551  0.3335358512993949  0.9591559840920283
  0.4996537522970002  0.6666389273565017  0.9590888408500930
  0.8330558823998402  0.9999431288246186  0.9591092427073704
  0.8331085010266293  0.3335523289486346  0.9597127747563334
  0.8329774987677467  0.6666102737922230  0.9597171788589520
  0.3328976663259766  0.0001743141550747  0.2086696229863847
  0.3332209466287068  0.3334797270840539  0.2091645908465765
  0.3331559871881922  0.6668541905661201  0.2091308266169634
  0.6666830697150345  0.0000070288071541  0.2087859706292434
  0.6665933695207329  0.3333106491963704  0.2092931879930759
  0.6664368068024942  0.6666998619179836  0.2092725635594377
  0.9997883394995810  0.0001008844007941  0.2093657070849346
  0.9998535219990856  0.3334197118280784  0.2098246065757365
  0.9997392895260688  0.6667848318315421  0.2097433610106378
  0.1665871480787544  0.1668731888291859  0.7092204810229248
  0.1662523510405833  0.5002033446701830  0.7097704426472902
  0.1662362082708810  0.8335615822801969  0.7092397510155308
  0.4997521993022005  0.1667645199868062  0.7088229717120953
  0.4997786901776919  0.5001112749879155  0.7092184321161881
  0.4996839305695246  0.8334409443241810  0.7087388516609394
  0.8329988754112918  0.1667448166210548  0.7093739535375434
  0.8332569988877268  0.5001019809243701  0.7098613245326248
  0.8330436818401949  0.8334280177598785  0.7093326857923401
  0.9996692407046339  0.1667789790357972  0.0409641069806455
  0.9998043717783105  0.5000937529106722  0.0413038508079424
  0.9997292655226317  0.8334504897768227  0.0408714994803532
  0.3332925866575138  0.1668584334487093  0.0402266179450805
  0.3331809943950148  0.5001594204393740  0.0407186203143510
  0.3330110063229199  0.8334890572698157  0.0402070248717763
  0.6663440183850327  0.1666879578382563  0.0403333091562104
  0.6662536797815051  0.5000113123484198  0.0408567535932320
  0.6662097372420632  0.8333145381738873  0.0403261792251683
  0.1664861755483926  0.0002042274012268  0.5404142644132790
  0.1666170315666093  0.3335762414725068  0.5410238427573972
  0.1665667622234395  0.6668372913695677  0.5410086909726175
  0.4997544466630046  0.0001164607659589  0.5400521430845941
  0.4998647923387196  0.3334350434263129  0.5405257634415648
  0.4997463560545086  0.6667646348388274  0.5404457824560183
  0.8330773086224355  0.0000750026458434  0.5405570940336375
  0.8331530024262435  0.3334555758250559  0.5411221845221164
  0.8329742794183659  0.6667297274543742  0.5411260180371542
  0.3330295735804114  0.0000807330564996  0.7900751382446032
  0.3331215402360570  0.3335712304767640  0.7906810493391419
  0.3329685255522108  0.6669181278924157  0.7906121874994554
  0.6663907137434535  0.0000162626805533  0.7902044318506327
  0.6664782115941463  0.3334068129729388  0.7907744101885754
  0.6663524751203838  0.6667475334653474  0.7907456232777861
  0.9997239787994374  0.0002680588232806  0.7906371415992197
  0.9997943165755814  0.3332054003521279  0.7912229970540920
  0.9996467909456470  0.6669658250823076  0.7911976718320446
  0.1664952456979734  0.1668695443873673  0.2905953603539970
  0.1665207778735436  0.5001908502566579  0.2911118551245551
  0.1663830233358539  0.8334168968038966  0.2905987839105180
  0.4998459959016017  0.1665652721526030  0.2901455141765155
  0.4998650725003557  0.5000522100501712  0.2906640273778649
  0.4997317757930944  0.8335924124620746  0.2901036118638558
  0.8331766956483122  0.1666870524541295  0.2907523327966288
  0.8331883249922143  0.5000539113557920  0.2912031254968213
  0.8330821190214763  0.8333437031607929  0.2906798657799641
  0.9996970821306235  0.0001313752735044  0.9999736802737118
 
  0.00000000E+00  0.00000000E+00  0.00000000E+00
  0.00000000E+00  0.00000000E+00  0.00000000E+00
  0.00000000E+00  0.00000000E+00  0.00000000E+00
  0.00000000E+00  0.00000000E+00  0.00000000E+00
  0.00000000E+00  0.00000000E+00  0.00000000E+00
  0.00000000E+00  0.00000000E+00  0.00000000E+00
  0.00000000E+00  0.00000000E+00  0.00000000E+00
  0.00000000E+00  0.00000000E+00  0.00000000E+00
  0.00000000E+00  0.00000000E+00  0.00000000E+00
  0.00000000E+00  0.00000000E+00  0.00000000E+00
  0.00000000E+00  0.00000000E+00  0.00000000E+00
  0.00000000E+00  0.00000000E+00  0.00000000E+00
  0.00000000E+00  0.00000000E+00  0.00000000E+00
  0.00000000E+00  0.00000000E+00  0.00000000E+00
  0.00000000E+00  0.00000000E+00  0.00000000E+00
  0.00000000E+00  0.00000000E+00  0.00000000E+00
  0.00000000E+00  0.00000000E+00  0.00000000E+00
  0.00000000E+00  0.00000000E+00  0.00000000E+00
  0.00000000E+00  0.00000000E+00  0.00000000E+00
  0.00000000E+00  0.00000000E+00  0.00000000E+00
  0.00000000E+00  0.00000000E+00  0.00000000E+00
  0.00000000E+00  0.00000000E+00  0.00000000E+00
  0.00000000E+00  0.00000000E+00  0.00000000E+00
  0.00000000E+00  0.00000000E+00  0.00000000E+00
  0.00000000E+00  0.00000000E+00  0.00000000E+00
  0.00000000E+00  0.00000000E+00  0.00000000E+00
  0.00000000E+00  0.00000000E+00  0.00000000E+00
  0.00000000E+00  0.00000000E+00  0.00000000E+00
  0.00000000E+00  0.00000000E+00  0.00000000E+00
  0.00000000E+00  0.00000000E+00  0.00000000E+00
  0.00000000E+00  0.00000000E+00  0.00000000E+00
  0.00000000E+00  0.00000000E+00  0.00000000E+00
  0.00000000E+00  0.00000000E+00  0.00000000E+00
  0.00000000E+00  0.00000000E+00  0.00000000E+00
  0.00000000E+00  0.00000000E+00  0.00000000E+00
  0.00000000E+00  0.00000000E+00  0.00000000E+00
  0.00000000E+00  0.00000000E+00  0.00000000E+00
  0.00000000E+00  0.00000000E+00  0.00000000E+00
  0.00000000E+00  0.00000000E+00  0.00000000E+00
  0.00000000E+00  0.00000000E+00  0.00000000E+00
  0.00000000E+00  0.00000000E+00  0.00000000E+00
  0.00000000E+00  0.00000000E+00  0.00000000E+00
  0.00000000E+00  0.00000000E+00  0.00000000E+00
  0.00000000E+00  0.00000000E+00  0.00000000E+00
  0.00000000E+00  0.00000000E+00  0.00000000E+00
  0.00000000E+00  0.00000000E+00  0.00000000E+00
  0.00000000E+00  0.00000000E+00  0.00000000E+00
  0.00000000E+00  0.00000000E+00  0.00000000E+00
  0.00000000E+00  0.00000000E+00  0.00000000E+00
  0.00000000E+00  0.00000000E+00  0.00000000E+00
  0.00000000E+00  0.00000000E+00  0.00000000E+00
  0.00000000E+00  0.00000000E+00  0.00000000E+00
  0.00000000E+00  0.00000000E+00  0.00000000E+00
  0.00000000E+00  0.00000000E+00  0.00000000E+00
  0.00000000E+00  0.00000000E+00  0.00000000E+00
  0.00000000E+00  0.00000000E+00  0.00000000E+00
  0.00000000E+00  0.00000000E+00  0.00000000E+00
  0.00000000E+00  0.00000000E+00  0.00000000E+00
  0.00000000E+00  0.00000000E+00  0.00000000E+00
  0.00000000E+00  0.00000000E+00  0.00000000E+00
  0.00000000E+00  0.00000000E+00  0.00000000E+00
  0.00000000E+00  0.00000000E+00  0.00000000E+00
  0.00000000E+00  0.00000000E+00  0.00000000E+00
  0.00000000E+00  0.00000000E+00  0.00000000E+00
  0.00000000E+00  0.00000000E+00  0.00000000E+00
  0.00000000E+00  0.00000000E+00  0.00000000E+00
  0.00000000E+00  0.00000000E+00  0.00000000E+00
  0.00000000E+00  0.00000000E+00  0.00000000E+00
  0.00000000E+00  0.00000000E+00  0.00000000E+00
  0.00000000E+00  0.00000000E+00  0.00000000E+00
  0.00000000E+00  0.00000000E+00  0.00000000E+00
  0.00000000E+00  0.00000000E+00  0.00000000E+00
  0.00000000E+00  0.00000000E+00  0.00000000E+00
  0.00000000E+00  0.00000000E+00  0.00000000E+00
  0.00000000E+00  0.00000000E+00  0.00000000E+00
  0.00000000E+00  0.00000000E+00  0.00000000E+00
  0.00000000E+00  0.00000000E+00  0.00000000E+00
  0.00000000E+00  0.00000000E+00  0.00000000E+00
  0.00000000E+00  0.00000000E+00  0.00000000E+00
  0.00000000E+00  0.00000000E+00  0.00000000E+00
  0.00000000E+00  0.00000000E+00  0.00000000E+00
  0.00000000E+00  0.00000000E+00  0.00000000E+00
  0.00000000E+00  0.00000000E+00  0.00000000E+00
  0.00000000E+00  0.00000000E+00  0.00000000E+00
  0.00000000E+00  0.00000000E+00  0.00000000E+00
  0.00000000E+00  0.00000000E+00  0.00000000E+00
  0.00000000E+00  0.00000000E+00  0.00000000E+00
  0.00000000E+00  0.00000000E+00  0.00000000E+00
  0.00000000E+00  0.00000000E+00  0.00000000E+00
  0.00000000E+00  0.00000000E+00  0.00000000E+00
  0.00000000E+00  0.00000000E+00  0.00000000E+00
  0.00000000E+00  0.00000000E+00  0.00000000E+00
  0.00000000E+00  0.00000000E+00  0.00000000E+00
  0.00000000E+00  0.00000000E+00  0.00000000E+00
  0.00000000E+00  0.00000000E+00  0.00000000E+00
  0.00000000E+00  0.00000000E+00  0.00000000E+00
  0.00000000E+00  0.00000000E+00  0.00000000E+00
  0.00000000E+00  0.00000000E+00  0.00000000E+00
  0.00000000E+00  0.00000000E+00  0.00000000E+00
  0.00000000E+00  0.00000000E+00  0.00000000E+00
  0.00000000E+00  0.00000000E+00  0.00000000E+00
  0.00000000E+00  0.00000000E+00  0.00000000E+00
  0.00000000E+00  0.00000000E+00  0.00000000E+00
  0.00000000E+00  0.00000000E+00  0.00000000E+00
  0.00000000E+00  0.00000000E+00  0.00000000E+00
  0.00000000E+00  0.00000000E+00  0.00000000E+00
  0.00000000E+00  0.00000000E+00  0.00000000E+00
  0.00000000E+00  0.00000000E+00  0.00000000E+00
