Ba27 Ti27 O81
1.0
  12.0245668447    0.0000000000    0.0000000000
   0.0000000000   12.0245668447    0.0000000000
   0.0000000000    0.0000000000   12.0245668447
Ba Ti O
27 27 81
direct
   0.1666666667    0.1666666667    0.1666666667 Ba
   0.1666666667    0.1666666667    0.5000000000 Ba
   0.1666666667    0.1666666667    0.8333333333 Ba
   0.1666666667    0.5000000000    0.1666666667 Ba
   0.1666666667    0.5000000000    0.5000000000 Ba
   0.1666666667    0.5000000000    0.8333333333 Ba
   0.1666666667    0.8333333333    0.1666666667 Ba
   0.1666666667    0.8333333333    0.5000000000 Ba
   0.1666666667    0.8333333333    0.8333333333 Ba
   0.5000000000    0.1666666667    0.1666666667 Ba
   0.5000000000    0.1666666667    0.5000000000 Ba
   0.5000000000    0.1666666667    0.8333333333 Ba
   0.5000000000    0.5000000000    0.1666666667 Ba
   0.5000000000    0.5000000000    0.5000000000 Ba
   0.5000000000    0.5000000000    0.8333333333 Ba
   0.5000000000    0.8333333333    0.1666666667 Ba
   0.5000000000    0.8333333333    0.5000000000 Ba
   0.5000000000    0.8333333333    0.8333333333 Ba
   0.8333333333    0.1666666667    0.1666666667 Ba
   0.8333333333    0.1666666667    0.5000000000 Ba
   0.8333333333    0.1666666667    0.8333333333 Ba
   0.8333333333    0.5000000000    0.1666666667 Ba
   0.8333333333    0.5000000000    0.5000000000 Ba
   0.8333333333    0.5000000000    0.8333333333 Ba
   0.8333333333    0.8333333333    0.1666666667 Ba
   0.8333333333    0.8333333333    0.5000000000 Ba
   0.8333333333    0.8333333333    0.8333333333 Ba
   0.0000000000    0.0000000000    0.0000000000 Ti
   0.0000000000    0.0000000000    0.3333333333 Ti
   0.0000000000    0.0000000000    0.6666666667 Ti
   0.0000000000    0.3333333333    0.0000000000 Ti
   0.0000000000    0.3333333333    0.3333333333 Ti
   0.0000000000    0.3333333333    0.6666666667 Ti
   0.0000000000    0.6666666667    0.0000000000 Ti
   0.0000000000    0.6666666667    0.3333333333 Ti
   0.0000000000    0.6666666667    0.6666666667 Ti
   0.3333333333    0.0000000000    0.0000000000 Ti
   0.3333333333    0.0000000000    0.3333333333 Ti
   0.3333333333    0.0000000000    0.6666666667 Ti
   0.3333333333    0.3333333333    0.0000000000 Ti
   0.3333333333    0.3333333333    0.3333333333 Ti
   0.3333333333    0.3333333333    0.6666666667 Ti
   0.3333333333    0.6666666667    0.0000000000 Ti
   0.3333333333    0.6666666667    0.3333333333 Ti
   0.3333333333    0.6666666667    0.6666666667 Ti
   0.6666666667    0.0000000000    0.0000000000 Ti
   0.6666666667    0.0000000000    0.3333333333 Ti
   0.6666666667    0.0000000000    0.6666666667 Ti
   0.6666666667    0.3333333333    0.0000000000 Ti
   0.6666666667    0.3333333333    0.3333333333 Ti
   0.6666666667    0.3333333333    0.6666666667 Ti
   0.6666666667    0.6666666667    0.0000000000 Ti
   0.6666666667    0.6666666667    0.3333333333 Ti
   0.6666666667    0.6666666667    0.6666666667 Ti
   0.1666666667    0.0000000000    0.0000000000 O
   0.1666666667    0.0000000000    0.3333333333 O
   0.1666666667    0.0000000000    0.6666666667 O
   0.1666666667    0.3333333333    0.0000000000 O
   0.1666666667    0.3333333333    0.3333333333 O
   0.1666666667    0.3333333333    0.6666666667 O
   0.1666666667    0.6666666667    0.0000000000 O
   0.1666666667    0.6666666667    0.3333333333 O
   0.1666666667    0.6666666667    0.6666666667 O
   0.5000000000    0.0000000000    0.0000000000 O
   0.5000000000    0.0000000000    0.3333333333 O
   0.5000000000    0.0000000000    0.6666666667 O
   0.5000000000    0.3333333333    0.0000000000 O
   0.5000000000    0.3333333333    0.3333333333 O
   0.5000000000    0.3333333333    0.6666666667 O
   0.5000000000    0.6666666667    0.0000000000 O
   0.5000000000    0.6666666667    0.3333333333 O
   0.5000000000    0.6666666667    0.6666666667 O
   0.8333333333    0.0000000000    0.0000000000 O
   0.8333333333    0.0000000000    0.3333333333 O
   0.8333333333    0.0000000000    0.6666666667 O
   0.8333333333    0.3333333333    0.0000000000 O
   0.8333333333    0.3333333333    0.3333333333 O
   0.8333333333    0.3333333333    0.6666666667 O
   0.8333333333    0.6666666667    0.0000000000 O
   0.8333333333    0.6666666667    0.3333333333 O
   0.8333333333    0.6666666667    0.6666666667 O
   0.0000000000    0.1666666667    0.0000000000 O
   0.0000000000    0.1666666667    0.3333333333 O
   0.0000000000    0.1666666667    0.6666666667 O
   0.0000000000    0.5000000000    0.0000000000 O
   0.0000000000    0.5000000000    0.3333333333 O
   0.0000000000    0.5000000000    0.6666666667 O
   0.0000000000    0.8333333333    0.0000000000 O
   0.0000000000    0.8333333333    0.3333333333 O
   0.0000000000    0.8333333333    0.6666666667 O
   0.3333333333    0.1666666667    0.0000000000 O
   0.3333333333    0.1666666667    0.3333333333 O
   0.3333333333    0.1666666667    0.6666666667 O
   0.3333333333    0.5000000000    0.0000000000 O
   0.3333333333    0.5000000000    0.3333333333 O
   0.3333333333    0.5000000000    0.6666666667 O
   0.3333333333    0.8333333333    0.0000000000 O
   0.3333333333    0.8333333333    0.3333333333 O
   0.3333333333    0.8333333333    0.6666666667 O
   0.6666666667    0.1666666667    0.0000000000 O
   0.6666666667    0.1666666667    0.3333333333 O
   0.6666666667    0.1666666667    0.6666666667 O
   0.6666666667    0.5000000000    0.0000000000 O
   0.6666666667    0.5000000000    0.3333333333 O
   0.6666666667    0.5000000000    0.6666666667 O
   0.6666666667    0.8333333333    0.0000000000 O
   0.6666666667    0.8333333333    0.3333333333 O
   0.6666666667    0.8333333333    0.6666666667 O
   0.0000000000    0.0000000000    0.1666666667 O
   0.0000000000    0.0000000000    0.5000000000 O
   0.0000000000    0.0000000000    0.8333333333 O
   0.0000000000    0.3333333333    0.1666666667 O
   0.0000000000    0.3333333333    0.5000000000 O
   0.0000000000    0.3333333333    0.8333333333 O
   0.0000000000    0.6666666667    0.1666666667 O
   0.0000000000    0.6666666667    0.5000000000 O
   0.0000000000    0.6666666667    0.8333333333 O
   0.3333333333    0.0000000000    0.1666666667 O
   0.3333333333    0.0000000000    0.5000000000 O
   0.3333333333    0.0000000000    0.8333333333 O
   0.3333333333    0.3333333333    0.1666666667 O
   0.3333333333    0.3333333333    0.5000000000 O
   0.3333333333    0.3333333333    0.8333333333 O
   0.3333333333    0.6666666667    0.1666666667 O
   0.3333333333    0.6666666667    0.5000000000 O
   0.3333333333    0.6666666667    0.8333333333 O
   0.6666666667    0.0000000000    0.1666666667 O
   0.6666666667    0.0000000000    0.5000000000 O
   0.6666666667    0.0000000000    0.8333333333 O
   0.6666666667    0.3333333333    0.1666666667 O
   0.6666666667    0.3333333333    0.5000000000 O
   0.6666666667    0.3333333333    0.8333333333 O
   0.6666666667    0.6666666667    0.1666666667 O
   0.6666666667    0.6666666667    0.5000000000 O
   0.6666666667    0.6666666667    0.8333333333 O
